! Malon aldehyde proton transfer B restart test1
 $SCF    DIRSCF=.TRUE. $END
 $CONTRL RUNTYP=NEBPATH $END
 $CONTRL INTTYP=HONDO ICUT=21 ITOL=31 $END
 $BASIS  NGAUSS=6 GBASIS=N31 DIFFSP=.TRUE. DIFFS=.TRUE. NDFUNC=1 NPFUNC=1 $END
 $SYSTEM MWORDS=1000 MEMDDI=200 TIMLIM=99999999 KDIAG=0 $END
 $GUESS  GUESS=MOREAD NORB=119 $END
 $NEB    IMAGES=15 MORINT=.TRUE. VIAPNT=.TRUE. SPFORC=300.9
         OPTTOL=3.0 MAXCYC=1000 $END

Cs
 $DATA
Malon aldehyde
C1
CARBON      6.0   0.2145244008  -2.3787612401   0.0000000000
CARBON      6.0   0.8817485992  -1.0878280606   0.0000000000
CARBON      6.0   0.1806931208   0.0595513217   0.0000000000
OXYGEN      8.0  -0.9856040046  -2.5181999997   0.0000000000
OXYGEN      8.0  -1.1264369495   0.1676023893   0.0000000000
HYDROGEN    1.0   0.8571134079  -3.2607818521   0.0000000000
HYDROGEN    1.0   0.6734625083   1.0152979535   0.0000000000
HYDROGEN    1.0  -1.5274454547  -0.7003267569   0.0000000000
HYDROGEN    1.0   1.9540041599  -1.0479933113   0.0000000000
 $END

 $DATAPD
c    6.0    0.001221   -1.256012    0.000000
c    6.0    0.668411    0.034973    0.000000
c    6.0   -0.032730    1.182281    0.000000
o    8.0    0.581680   -2.315613    0.000000
o    8.0   -1.339844    1.290222    0.000000
h    1.0   -1.089966   -1.242020    0.000000
h8   1.0    0.459976    2.138062    0.000000
h9   1.0   -1.740784    0.422318    0.000000
h7   1.0    1.740600    0.074860    0.000000
 $END

 $DATAVI
C   6.0    0.001251   -1.256027    0.000031
C   6.0    0.668457    0.034912    0.000000
C   6.0   -0.032608    1.182297    0.000000
O   8.0   -0.355179   -1.831451    1.000763
O   8.0   -1.339676    1.290329    0.000000
H   1.0   -0.177673   -1.713455   -0.974457
H8  1.0    0.460144    2.138031    0.000000
H9  1.0   -1.740707    0.422409    0.000000
H7  1.0    1.740707    0.074753    0.000000
 $END

*********************************************************
*********************************************************
** For a restarting job, you have to keep your initial **
** input deck and append the following data into your  **
** input deck.                        (SK, 2019/03/11) **
*********************************************************
 $NEB  IMAGES=      15
       VIAPNT=.T.            METHOD=NEB     
       MOLSYM=.F.            MORINT=.T.
       RESTRT=.T.            ISTART=       5
 $END

*** Caution: all data are in atomic unit.
 $IMAGESX          icycle=       5
#image =    1, Energy=     -265.6529752664, Grad RMS=      0.000001713098
CARBON         6.0000      0.8379565951     -2.3303443629      0.0000000000
CARBON         6.0000      2.0988275025      0.1091656149      0.0000000000
CARBON         6.0000      0.7740247461      2.2773982514      0.0000000000
OXYGEN         8.0000     -1.4299572412     -2.5938454106      0.0000000000
OXYGEN         8.0000     -1.6960929171      2.4815851618      0.0000000000
HYDROGEN       1.0000      2.0522737412     -3.9971216351      0.0000000000
HYDROGEN       1.0000      1.7052238636      4.0834974992      0.0000000000
HYDROGEN       1.0000     -2.4538891107      0.8414368987      0.0000000000
HYDROGEN       1.0000      4.1250967010      0.1844423758      0.0000000000
*** Velocities of atoms ---
CARBON         6.0000    0.00000000E+00    0.00000000E+00    0.00000000E+00
CARBON         6.0000    0.00000000E+00    0.00000000E+00    0.00000000E+00
CARBON         6.0000    0.00000000E+00    0.00000000E+00    0.00000000E+00
OXYGEN         8.0000    0.00000000E+00    0.00000000E+00    0.00000000E+00
OXYGEN         8.0000    0.00000000E+00    0.00000000E+00    0.00000000E+00
HYDROGEN       1.0000    0.00000000E+00    0.00000000E+00    0.00000000E+00
HYDROGEN       1.0000    0.00000000E+00    0.00000000E+00    0.00000000E+00
HYDROGEN       1.0000    0.00000000E+00    0.00000000E+00    0.00000000E+00
HYDROGEN       1.0000    0.00000000E+00    0.00000000E+00    0.00000000E+00
#image =    2, Energy=     -265.6512516596, Grad RMS=      0.002295816307
CARBON         6.0000      0.8174661989     -2.3260414260     -0.1250945321
CARBON         6.0000      2.0792778223      0.1215169449      0.0440819035
CARBON         6.0000      0.7850247793      2.3000938816      0.0559647186
OXYGEN         8.0000     -1.4205481923     -2.6864947258      0.1163290940
OXYGEN         8.0000     -1.6821452207      2.5354859763     -0.0736308639
HYDROGEN       1.0000      2.0238069928     -3.9392233957     -0.5177832396
HYDROGEN       1.0000      1.7282894641      4.0947829028      0.1710665586
HYDROGEN       1.0000     -2.4545707866      0.9116412007     -0.1815658973
HYDROGEN       1.0000      4.1062659528      0.1914886012      0.1488720383
*** Velocities of atoms ---
CARBON         6.0000    0.24072078E-02   -0.13785339E-01    0.35621130E-04
CARBON         6.0000   -0.34256030E-02    0.22732239E-02    0.13202826E-02
CARBON         6.0000   -0.69545258E-05    0.18816411E-02    0.57064683E-02
OXYGEN         8.0000   -0.83337259E-03    0.16710957E-01   -0.47574099E-02
OXYGEN         8.0000   -0.23890774E-02   -0.16770936E-02   -0.45503286E-02
HYDROGEN       1.0000    0.74457404E-02   -0.67974501E-03   -0.53733534E-02
HYDROGEN       1.0000    0.11129282E-02    0.40428833E-04    0.10644749E-02
HYDROGEN       1.0000   -0.31230464E-02    0.91726485E-03    0.25750364E-02
HYDROGEN       1.0000   -0.21733373E-02   -0.31947931E-02   -0.15235455E-02
#image =    3, Energy=     -265.6471458851, Grad RMS=      0.003489843566
CARBON         6.0000      0.7823541451     -2.3106360541     -0.2414321276
CARBON         6.0000      2.0557791974      0.1283229922      0.0916422785
CARBON         6.0000      0.7952620848      2.3161365437      0.1049962241
OXYGEN         8.0000     -1.3942267542     -2.7762143111      0.2257666287
OXYGEN         8.0000     -1.6664347008      2.5852757164     -0.1431454184
HYDROGEN       1.0000      1.9311129515     -3.8091886667     -1.0305162026
HYDROGEN       1.0000      1.7462835653      4.0954049546      0.3249175656
HYDROGEN       1.0000     -2.4430971796      0.9800469742     -0.3590355853
HYDROGEN       1.0000      4.0783882677      0.1706566946      0.2867260305
*** Velocities of atoms ---
CARBON         6.0000    0.40126568E-02   -0.22580025E-01   -0.49426472E-02
CARBON         6.0000   -0.51431469E-02    0.52740075E-02    0.41516967E-02
CARBON         6.0000    0.82445142E-03    0.23817987E-02    0.12395263E-01
OXYGEN         8.0000   -0.18169493E-02    0.24846964E-01   -0.42420719E-02
OXYGEN         8.0000   -0.45272280E-02   -0.15875732E-02   -0.86731455E-02
HYDROGEN       1.0000    0.11057584E-01   -0.16138401E-02   -0.88662709E-02
HYDROGEN       1.0000    0.16050321E-02   -0.17634467E-03    0.52349829E-03
HYDROGEN       1.0000   -0.61739180E-02    0.32915456E-02    0.46256842E-02
HYDROGEN       1.0000   -0.30129219E-02   -0.51447565E-02   -0.35730783E-02
#image =    4, Energy=     -265.6419629771, Grad RMS=      0.003855870332
CARBON         6.0000      0.7339109270     -2.2866976748     -0.3469888698
CARBON         6.0000      2.0276188645      0.1299889543      0.1396677404
CARBON         6.0000      0.8051319762      2.3281901935      0.1495231463
OXYGEN         8.0000     -1.3517066110     -2.8692249321      0.3270623405
OXYGEN         8.0000     -1.6485060842      2.6360381407     -0.2108650508
HYDROGEN       1.0000      1.7692713886     -3.6072000628     -1.5149394606
HYDROGEN       1.0000      1.7623704556      4.0878337994      0.4661968572
HYDROGEN       1.0000     -2.4247985431      1.0513876307     -0.5207778771
HYDROGEN       1.0000      4.0410651424      0.1270206954      0.4135763500
*** Velocities of atoms ---
CARBON         6.0000    0.28976288E-02   -0.24738473E-01   -0.14836163E-01
CARBON         6.0000   -0.46750934E-02    0.75823414E-02    0.87895344E-02
CARBON         6.0000    0.22625868E-02    0.19322732E-02    0.18699203E-01
OXYGEN         8.0000   -0.20526923E-02    0.26368797E-01    0.17986113E-03
OXYGEN         8.0000   -0.67471680E-02   -0.12763553E-02   -0.11707452E-01
HYDROGEN       1.0000    0.12687978E-01   -0.46365514E-02   -0.92812773E-02
HYDROGEN       1.0000    0.17946062E-02   -0.42864554E-03   -0.11852038E-02
HYDROGEN       1.0000   -0.90860121E-02    0.66942382E-02    0.61691202E-02
HYDROGEN       1.0000   -0.24862534E-02   -0.54228073E-02   -0.53032222E-02
#image =    5, Energy=     -265.6366039557, Grad RMS=      0.003719996905
CARBON         6.0000      0.6726012636     -2.2551529100     -0.4434374135
CARBON         6.0000      1.9933845324      0.1256818597      0.1871185896
CARBON         6.0000      0.8135981867      2.3371731873      0.1903255215
OXYGEN         8.0000     -1.2920583748     -2.9691108869      0.4203889481
OXYGEN         8.0000     -1.6275245258      2.6923263299     -0.2777349386
HYDROGEN       1.0000      1.5399748927     -3.3493175009     -1.9396544590
HYDROGEN       1.0000      1.7772905005      4.0729495830      0.5967998436
HYDROGEN       1.0000     -2.4040023550      1.1307259433     -0.6704618221
HYDROGEN       1.0000      3.9918126844      0.0653387812      0.5350653384
*** Velocities of atoms ---
CARBON         6.0000   -0.17175475E-02   -0.19529409E-01   -0.23734865E-01
CARBON         6.0000   -0.10536470E-02    0.95452384E-02    0.12122922E-01
CARBON         6.0000    0.49662399E-02    0.92540839E-03    0.23256348E-01
OXYGEN         8.0000   -0.21150394E-02    0.20510774E-01    0.48694722E-02
OXYGEN         8.0000   -0.81677380E-02   -0.67960140E-03   -0.13476052E-01
HYDROGEN       1.0000    0.12546918E-01   -0.93949224E-02   -0.74787262E-02
HYDROGEN       1.0000    0.16291290E-02   -0.81866262E-03   -0.30286851E-02
HYDROGEN       1.0000   -0.12269737E-01    0.91868040E-02    0.68631743E-02
HYDROGEN       1.0000   -0.22098311E-03   -0.38261101E-02   -0.54264112E-02
#image =    6, Energy=     -265.6316999185, Grad RMS=      0.003434972182
CARBON         6.0000      0.5996632830     -2.2172918544     -0.5267289512
CARBON         6.0000      1.9528363013      0.1155631237      0.2313222885
CARBON         6.0000      0.8195762089      2.3437592933      0.2265688050
OXYGEN         8.0000     -1.2163270243     -3.0753123862      0.5027507098
OXYGEN         8.0000     -1.6027744041      2.7548738165     -0.3425587538
HYDROGEN       1.0000      1.2528739584     -3.0594102604     -2.2803418272
HYDROGEN       1.0000      1.7905984793      4.0521167475      0.7159838711
HYDROGEN       1.0000     -2.3825838631      1.2197278302     -0.8123384236
HYDROGEN       1.0000      3.9295553111     -0.0086595231      0.6539750481
*** Velocities of atoms ---
CARBON         6.0000   -0.10289813E-01   -0.71796142E-02   -0.27095915E-01
CARBON         6.0000    0.58487043E-02    0.11733844E-01    0.11110572E-01
CARBON         6.0000    0.90476785E-02   -0.38028001E-03    0.24799409E-01
OXYGEN         8.0000   -0.23802919E-02    0.75418676E-02    0.66629661E-02
OXYGEN         8.0000   -0.83487436E-02   -0.28789523E-03   -0.13887824E-01
HYDROGEN       1.0000    0.11827297E-01   -0.15285210E-01   -0.36238326E-02
HYDROGEN       1.0000    0.10915535E-02   -0.11426508E-02   -0.40347853E-02
HYDROGEN       1.0000   -0.15156339E-01    0.98155975E-02    0.69461038E-02
HYDROGEN       1.0000    0.33332601E-02   -0.92046408E-03   -0.32436802E-02
#image =    7, Energy=     -265.6279206509, Grad RMS=      0.003223821206
CARBON         6.0000      0.5095748411     -2.1752058103     -0.5914075110
CARBON         6.0000      1.9026645045      0.1056811786      0.2620896484
CARBON         6.0000      0.8227703843      2.3546934166      0.2641894708
OXYGEN         8.0000     -1.1233731181     -3.2031185079      0.5734115998
OXYGEN         8.0000     -1.5694778264      2.8326822018     -0.4095375332
HYDROGEN       1.0000      0.9298704559     -2.7721840164     -2.5134038082
HYDROGEN       1.0000      1.8055645354      4.0277300490      0.8374729481
HYDROGEN       1.0000     -2.3630262245      1.3239009521     -0.9314529165
HYDROGEN       1.0000      3.8463710228     -0.0958114739      0.7820567153
*** Velocities of atoms ---
CARBON         6.0000   -0.16688654E-01    0.20584790E-02   -0.25427160E-01
CARBON         6.0000    0.10505122E-01    0.11847913E-01    0.12482403E-01
CARBON         6.0000    0.14015206E-01    0.13737650E-03    0.19450685E-01
OXYGEN         8.0000   -0.15678048E-02   -0.36149428E-02    0.67317862E-02
OXYGEN         8.0000   -0.82575097E-02   -0.86736911E-03   -0.11614308E-01
HYDROGEN       1.0000    0.97670790E-02   -0.19075148E-01   -0.39152290E-02
HYDROGEN       1.0000   -0.27878292E-04   -0.75049836E-03   -0.31897966E-02
HYDROGEN       1.0000   -0.16665943E-01    0.10910188E-01    0.52439139E-02
HYDROGEN       1.0000    0.53862894E-02    0.14124890E-02   -0.21915942E-04
#image =    8, Energy=     -265.6262877038, Grad RMS=      0.002716173065
CARBON         6.0000      0.3933430595     -2.1390421909     -0.6461028384
CARBON         6.0000      1.8218988224      0.0912256877      0.2808998904
CARBON         6.0000      0.8177642654      2.3686780846      0.3045454067
OXYGEN         8.0000     -0.9929957492     -3.3634594685      0.6394167002
OXYGEN         8.0000     -1.5221058456      2.9527041063     -0.4811482594
HYDROGEN       1.0000      0.6221994824     -2.5719816783     -2.6475056338
HYDROGEN       1.0000      1.8232505106      3.9859521819      0.9714961490
HYDROGEN       1.0000     -2.3543395731      1.4861077971     -1.0526431453
HYDROGEN       1.0000      3.7118810528     -0.2015383012      0.9390572441
*** Velocities of atoms ---
CARBON         6.0000   -0.92152807E-03   -0.97392428E-02   -0.11407349E-01
CARBON         6.0000    0.11957357E-01    0.16544628E-01    0.12720581E-01
CARBON         6.0000    0.19813837E-01    0.94679341E-02    0.11506963E-01
OXYGEN         8.0000   -0.82874934E-02   -0.13621126E-01    0.16803267E-02
OXYGEN         8.0000   -0.85829343E-02   -0.17672102E-02   -0.10157767E-01
HYDROGEN       1.0000   -0.67323569E-02   -0.89729362E-02   -0.81432745E-02
HYDROGEN       1.0000    0.57284071E-03    0.11075669E-02    0.43588186E-03
HYDROGEN       1.0000   -0.18972615E-01    0.13303761E-01    0.85571970E-03
HYDROGEN       1.0000    0.21711111E-02   -0.62606776E-03    0.24598520E-02
#image =    9, Energy=     -265.6251895319, Grad RMS=      0.003333415091
CARBON         6.0000      0.2939137410     -2.0939151695     -0.6421645430
CARBON         6.0000      1.7704248979      0.0833598213      0.3327918721
CARBON         6.0000      0.8280016301      2.3906008761      0.3014201429
OXYGEN         8.0000     -0.8961182561     -3.4980820009      0.6525606111
OXYGEN         8.0000     -1.4856187604      3.0196559866     -0.5308678744
HYDROGEN       1.0000      0.1935592583     -2.2434134110     -2.6985094053
HYDROGEN       1.0000      1.8638806699      3.9963670532      0.9615677787
HYDROGEN       1.0000     -2.3398748867      1.5670516477     -1.1054209598
HYDROGEN       1.0000      3.6437189067     -0.2521763451      1.0057004321
*** Velocities of atoms ---
CARBON         6.0000   -0.28803341E-01    0.12232136E-01   -0.10828146E-01
CARBON         6.0000    0.18399111E-01    0.12565092E-01    0.41173853E-02
CARBON         6.0000    0.21064293E-01    0.12874746E-02    0.69379738E-02
OXYGEN         8.0000    0.37067548E-02   -0.21560317E-01    0.49401926E-02
OXYGEN         8.0000   -0.87023439E-02   -0.27950700E-02   -0.83446925E-02
HYDROGEN       1.0000    0.29886343E-02   -0.12558721E-01   -0.59899180E-02
HYDROGEN       1.0000   -0.12767562E-02   -0.32775181E-03    0.24632426E-03
HYDROGEN       1.0000   -0.15914820E-01    0.12773453E-01    0.10266447E-02
HYDROGEN       1.0000    0.44284155E-02    0.11300230E-02    0.81804016E-02
#image =   10, Energy=     -265.6267538291, Grad RMS=      0.003150139177
CARBON         6.0000      0.1522595591     -2.0545155452     -0.6168257020
CARBON         6.0000      1.6784857479      0.0739027056      0.3800067976
CARBON         6.0000      0.8353129687      2.4199519777      0.2977842041
OXYGEN         8.0000     -0.7512833557     -3.6761479398      0.6542853171
OXYGEN         8.0000     -1.4298282426      3.1346253935     -0.5907176784
HYDROGEN       1.0000     -0.2307193060     -2.0183718544     -2.6476196884
HYDROGEN       1.0000      1.9244770314      3.9922600528      0.9519381369
HYDROGEN       1.0000     -2.3453782727      1.7107062764     -1.1414235985
HYDROGEN       1.0000      3.5231353492     -0.3213769178      1.1023374517
*** Velocities of atoms ---
CARBON         6.0000   -0.24180908E-01    0.43706242E-02   -0.42151734E-02
CARBON         6.0000    0.20279850E-01    0.13059258E-01   -0.33945913E-02
CARBON         6.0000    0.22475784E-01    0.16369462E-02    0.17529085E-02
OXYGEN         8.0000    0.46833955E-02   -0.21409216E-01    0.62121440E-02
OXYGEN         8.0000   -0.99363169E-02   -0.28887165E-02   -0.56536151E-02
HYDROGEN       1.0000    0.56512007E-02   -0.63424934E-02   -0.74648199E-02
HYDROGEN       1.0000   -0.24234384E-02   -0.36854789E-03    0.26664674E-02
HYDROGEN       1.0000   -0.15420335E-01    0.10606687E-01   -0.11493404E-02
HYDROGEN       1.0000    0.19383257E-02   -0.24580113E-03    0.10308641E-01
#image =   11, Energy=     -265.6296957067, Grad RMS=      0.002811458289
CARBON         6.0000     -0.0038052968     -2.0207682713     -0.5501561795
CARBON         6.0000      1.5837155235      0.0663995227      0.4234536624
CARBON         6.0000      0.8428669612      2.4487046271      0.2861121906
OXYGEN         8.0000     -0.5966140024     -3.8454691359      0.6268107276
OXYGEN         8.0000     -1.3699590439      3.2463836052     -0.6494042685
HYDROGEN       1.0000     -0.6717376582     -1.8381091982     -2.4978563470
HYDROGEN       1.0000      1.9855942929      3.9849043824      0.9356089824
HYDROGEN       1.0000     -2.3488991785      1.8558645647     -1.1749913231
HYDROGEN       1.0000      3.3983820414     -0.3807128791      1.1977507524
*** Velocities of atoms ---
CARBON         6.0000   -0.99730494E-02   -0.89176256E-02   -0.79390420E-02
CARBON         6.0000    0.16283592E-01    0.11357547E-01   -0.29096780E-02
CARBON         6.0000    0.22021872E-01    0.17608915E-02   -0.19566753E-02
OXYGEN         8.0000    0.60607706E-02   -0.17157342E-01    0.11163222E-01
OXYGEN         8.0000   -0.11560991E-01   -0.26802274E-02   -0.36648964E-02
HYDROGEN       1.0000    0.22699381E-02    0.44693943E-02   -0.86193180E-02
HYDROGEN       1.0000   -0.20178373E-02   -0.39266022E-04    0.29294672E-02
HYDROGEN       1.0000   -0.14369284E-01    0.10538486E-01   -0.28402350E-02
HYDROGEN       1.0000   -0.17996044E-02   -0.22083942E-02    0.10617545E-01
#image =   12, Energy=     -265.6329400318, Grad RMS=      0.002849133034
CARBON         6.0000     -0.1578298807     -1.9954075861     -0.4550639913
CARBON         6.0000      1.4904438417      0.0553205391      0.4645624670
CARBON         6.0000      0.8481804629      2.4674888526      0.2716474572
OXYGEN         8.0000     -0.4422442143     -3.9775648380      0.5748406667
OXYGEN         8.0000     -1.3103076506      3.3408546202     -0.7060909762
HYDROGEN       1.0000     -1.1239950551     -1.6916928582     -2.2599761247
HYDROGEN       1.0000      2.0457334217      3.9670708994      0.9124522221
HYDROGEN       1.0000     -2.3491916395      1.9844891644     -1.2041058431
HYDROGEN       1.0000      3.2753695902     -0.4344997425      1.2871103020
*** Velocities of atoms ---
CARBON         6.0000    0.53866517E-02   -0.16494310E-01   -0.13347779E-01
CARBON         6.0000    0.10551630E-01    0.97678208E-02    0.74994738E-03
CARBON         6.0000    0.18818590E-01    0.10085454E-02   -0.41532749E-02
OXYGEN         8.0000    0.49685994E-02   -0.14539994E-01    0.12359057E-01
OXYGEN         8.0000   -0.13216234E-01   -0.19031584E-02   -0.26353435E-02
HYDROGEN       1.0000   -0.31937504E-02    0.11243067E-01   -0.41119474E-02
HYDROGEN       1.0000   -0.85568704E-03    0.80632303E-04    0.20753250E-02
HYDROGEN       1.0000   -0.11409653E-01    0.12572809E-01   -0.34689597E-02
HYDROGEN       1.0000   -0.50483112E-02   -0.38324228E-02    0.87736165E-02
#image =   13, Energy=     -265.6357014823, Grad RMS=      0.002813821610
CARBON         6.0000     -0.2914390731     -1.9760073559     -0.3332899819
CARBON         6.0000      1.4139882450      0.0462206239      0.5098729682
CARBON         6.0000      0.8541826842      2.4787501387      0.2510004242
OXYGEN         8.0000     -0.3100275588     -4.0710997778      0.4963833424
OXYGEN         8.0000     -1.2594398069      3.4073106776     -0.7591452403
HYDROGEN       1.0000     -1.5631839291     -1.5608204752     -1.9153973998
HYDROGEN       1.0000      2.1014157351      3.9502155291      0.8675648849
HYDROGEN       1.0000     -2.3441281043      2.0795419756     -1.2366594991
HYDROGEN       1.0000      3.1778676120     -0.4705384631      1.3635503654
*** Velocities of atoms ---
CARBON         6.0000    0.11523094E-01   -0.14298094E-01   -0.17871601E-01
CARBON         6.0000    0.63682070E-02    0.65721091E-02    0.39260980E-02
CARBON         6.0000    0.13443650E-01   -0.30246020E-04   -0.31627722E-02
OXYGEN         8.0000    0.41092523E-02   -0.13342493E-01    0.12333439E-01
OXYGEN         8.0000   -0.12888362E-01   -0.86288513E-03   -0.22853368E-02
HYDROGEN       1.0000   -0.28239736E-02    0.10379363E-01   -0.11691151E-02
HYDROGEN       1.0000    0.11641803E-03   -0.12452901E-03    0.11200400E-02
HYDROGEN       1.0000   -0.88269893E-02    0.13957491E-01   -0.32511858E-02
HYDROGEN       1.0000   -0.55062921E-02   -0.41713668E-02    0.55098208E-02
#image =   14, Energy=     -265.6374584658, Grad RMS=      0.002125826309
CARBON         6.0000     -0.3910039050     -1.9575885838     -0.2012400694
CARBON         6.0000      1.3630179797      0.0421159736      0.5629264616
CARBON         6.0000      0.8623438178      2.4823975882      0.2276368294
OXYGEN         8.0000     -0.2145614126     -4.1234376115      0.3985708773
OXYGEN         8.0000     -1.2236695896      3.4369974954     -0.8086853037
HYDROGEN       1.0000     -1.9475381412     -1.4286409006     -1.4667669557
HYDROGEN       1.0000      2.1510678595      3.9386702866      0.7976913067
HYDROGEN       1.0000     -2.3343065242      2.1246788931     -1.2699681862
HYDROGEN       1.0000      3.1151547778     -0.4906871038      1.4308848584
*** Velocities of atoms ---
CARBON         6.0000    0.58548905E-02   -0.75612153E-02   -0.89833258E-02
CARBON         6.0000    0.54637840E-02    0.46311977E-02    0.33948789E-02
CARBON         6.0000    0.10970546E-01   -0.22341208E-02    0.30618103E-03
OXYGEN         8.0000    0.47992995E-02   -0.12403958E-01    0.63308715E-02
OXYGEN         8.0000   -0.10772324E-01    0.24069034E-02   -0.34912233E-02
HYDROGEN       1.0000   -0.22696637E-02    0.33951314E-02    0.17738413E-02
HYDROGEN       1.0000    0.25514896E-03   -0.42028325E-03    0.23152980E-03
HYDROGEN       1.0000   -0.83038178E-02    0.15509546E-01   -0.38208317E-02
HYDROGEN       1.0000   -0.49047878E-02   -0.37421624E-02    0.27551248E-02
#image =   15, Energy=     -265.6361229750, Grad RMS=      0.011908788307
CARBON         6.0000     -0.4766248689     -1.9130724461     -0.0629209968
CARBON         6.0000      1.3338156139      0.0325056102      0.6287086613
CARBON         6.0000      0.8574885892      2.4902367074      0.1941401873
OXYGEN         8.0000     -0.1448081732     -4.1451465424      0.2840365813
OXYGEN         8.0000     -1.1873151788      3.4203428120     -0.8530559330
HYDROGEN       1.0000     -2.2269957255     -1.2734782624     -0.9460110976
HYDROGEN       1.0000      2.1958371291      3.9313486813      0.7051762745
HYDROGEN       1.0000     -2.3277381603      2.0855663062     -1.2794324215
HYDROGEN       1.0000      3.0842618878     -0.4995134470      1.5026839316
*** Velocities of atoms ---
CARBON         6.0000    0.00000000E+00    0.00000000E+00    0.00000000E+00
CARBON         6.0000    0.00000000E+00    0.00000000E+00    0.00000000E+00
CARBON         6.0000    0.00000000E+00    0.00000000E+00    0.00000000E+00
OXYGEN         8.0000    0.00000000E+00    0.00000000E+00    0.00000000E+00
OXYGEN         8.0000    0.00000000E+00    0.00000000E+00    0.00000000E+00
HYDROGEN       1.0000    0.00000000E+00    0.00000000E+00    0.00000000E+00
HYDROGEN       1.0000    0.00000000E+00    0.00000000E+00    0.00000000E+00
HYDROGEN       1.0000    0.00000000E+00    0.00000000E+00    0.00000000E+00
HYDROGEN       1.0000    0.00000000E+00    0.00000000E+00    0.00000000E+00
 $END

 $VEC
 1  1 5.67096047E-06 2.78835373E-05 3.98193907E-06-2.61100643E-06 0.00000000E+00
 1  2-8.92404494E-04 1.97864456E-04-4.74260834E-04 0.00000000E+00-2.77497705E-03
 1  3-4.33812370E-04-3.43894842E-04 0.00000000E+00 8.21443057E-06-8.84417017E-06
 1  4 1.96471485E-05 1.41255293E-05 0.00000000E+00 0.00000000E+00-1.01480810E-05
 1  5-1.04448333E-04-1.09485511E-05 2.71811259E-05 0.00000000E+00 1.02848408E-03
 1  6-1.07601102E-03-1.34168438E-04 0.00000000E+00-6.72713506E-04-7.83046444E-04
 1  7-1.92900040E-03 0.00000000E+00 1.05248974E-04-2.31482118E-05 2.47434481E-06
 1  8-4.62185407E-05 0.00000000E+00 0.00000000E+00 1.91111621E-05-3.46854562E-04
 1  9 3.48663200E-04-4.82988966E-05 0.00000000E+00-1.50587026E-03 7.60857947E-04
 1 10 8.94926637E-04 0.00000000E+00 1.84392595E-03 1.61518686E-03-7.11591680E-04
 1 11 0.00000000E+00 1.33525052E-04 4.11084845E-05 1.38935631E-04-3.98042683E-05
 1 12 0.00000000E+00 0.00000000E+00 3.40797477E-05-8.50767366E-05-5.35188405E-06
 1 13-1.49463920E-05 0.00000000E+00 5.27198620E-04 1.24731551E-04 1.26793588E-04
 1 14 0.00000000E+00-5.76407637E-05-5.95078178E-06-2.34330342E-05 0.00000000E+00
 1 15-5.95331971E-05-4.78851001E-05-6.07816367E-05 2.16331297E-05 0.00000000E+00
 1 16 0.00000000E+00-9.94572713E-01-2.11854630E-02-8.57670980E-04 1.20254828E-03
 1 17 0.00000000E+00-4.51374784E-03 1.04635112E-03-8.58527727E-04 0.00000000E+00
 1 18 2.29059546E-03-1.27957667E-04 5.12075400E-04 0.00000000E+00 4.35178007E-03
 1 19 4.08452986E-03 4.14694277E-03-7.87194789E-05 0.00000000E+00 0.00000000E+00
 1 20-6.98863898E-06-8.21691773E-05 1.28692623E-04 8.23180204E-08 1.11063600E-05
 1 21 0.00000000E+00 3.18240457E-05-5.09610849E-04 2.52545754E-04-7.73665986E-05
 1 22-1.42117828E-05 0.00000000E+00-2.29756246E-04 1.72653896E-04-1.02506424E-05
 1 23 7.18747608E-05 2.29828030E-04 0.00000000E+00 1.03636339E-05 4.90958542E-04
 1 24 3.44592645E-04 1.50937106E-05 1.64632724E-05 0.00000000E+00               
 2  1-8.18919314E-07 4.28492701E-04-4.73940399E-05-3.16529233E-05 0.00000000E+00
 2  2 1.20926872E-03-7.06693057E-04 3.66429948E-04 0.00000000E+00 1.79984137E-03
 2  3-1.01142916E-03 7.19634327E-04 0.00000000E+00-6.12179272E-04-5.44538669E-05
 2  4-8.71972854E-05-8.42107955E-05 0.00000000E+00 0.00000000E+00 4.79026617E-06
 2  5 5.39708966E-05 1.15119355E-06 2.76284769E-05 0.00000000E+00-5.89924327E-04
 2  6 7.95745205E-04-2.67266871E-04 0.00000000E+00-3.46220042E-03 1.53941428E-03
 2  7-6.67786171E-04 0.00000000E+00-9.60978666E-05 4.22623395E-05-8.59018105E-06
 2  8-5.76142420E-05 0.00000000E+00 0.00000000E+00-4.47636806E-06-2.70366025E-05
 2  9-1.50913787E-05 2.66884508E-06 0.00000000E+00 7.41641251E-04 6.74980763E-06
 2 10-4.44530685E-04 0.00000000E+00 2.73942578E-03 2.17335766E-04-4.67269145E-04
 2 11 0.00000000E+00-1.35127827E-05 9.47582062E-06-8.05337496E-06 1.81848745E-05
 2 12 0.00000000E+00 0.00000000E+00 9.94618977E-01 2.09624780E-02 1.56739612E-03
 2 13 3.01414590E-04 0.00000000E+00 4.68538002E-03-9.72085220E-04-2.37664403E-04
 2 14 0.00000000E+00-2.51842156E-03 2.12214252E-04-1.04963808E-04 0.00000000E+00
 2 15-3.95837687E-03-4.08754117E-03-4.32679239E-03 9.72476567E-06 0.00000000E+00
 2 16 0.00000000E+00 6.92574267E-05 6.42502466E-05 1.16495588E-05-6.88619511E-07
 2 17 0.00000000E+00-3.99377890E-04-3.42395443E-05 1.49343162E-04 0.00000000E+00
 2 18 4.71886061E-05 1.21617212E-04-1.90460695E-05 0.00000000E+00 3.85770265E-05
 2 19 1.21806267E-05 4.99692286E-05 2.99151651E-07 0.00000000E+00 0.00000000E+00
 2 20-4.84132674E-05 2.92660858E-04 4.16618094E-04 9.39831672E-05 3.17155849E-05
 2 21 0.00000000E+00 1.96431049E-06 5.79953929E-05 5.79218311E-06-2.87585706E-06
 2 22 1.17446682E-05 0.00000000E+00-8.10268043E-06 3.32751673E-04-1.30505638E-05
 2 23 6.51024319E-06 5.34240735E-05 0.00000000E+00-2.56281022E-06-4.17682263E-04
 2 24-6.35325386E-04-1.40739927E-05 2.88106566E-05 0.00000000E+00               
 3  1-2.59157846E-03 1.07737113E-04-4.36904977E-05 1.35499606E-05 0.00000000E+00
 3  2 7.28538804E-05-4.97059295E-04-5.45425467E-05 0.00000000E+00 7.99650948E-03
 3  3-1.53519176E-03 2.92723667E-03 0.00000000E+00 9.48773092E-06-1.34927473E-04
 3  4 4.75565258E-05-6.76530440E-07 0.00000000E+00 0.00000000E+00-6.74202953E-03
 3  5-1.79687200E-04-4.81071030E-05 1.43632546E-04 0.00000000E+00-2.58554090E-03
 3  6 9.31428850E-04-1.55267776E-03 0.00000000E+00-1.91921579E-02 4.53023114E-03
 3  7-1.72179074E-03 0.00000000E+00 2.17370958E-04 2.65081829E-04-3.57739496E-05
 3  8-1.04983770E-05 0.00000000E+00 0.00000000E+00-9.95940372E-01-2.76085569E-02
 3  9 1.49082832E-03-1.39295080E-04 0.00000000E+00 1.53780338E-02-5.41711311E-04
 3 10-9.09061196E-04 0.00000000E+00 1.64463025E-02-6.56556134E-04-2.78127860E-03
 3 11 0.00000000E+00 6.90324327E-04 9.11777750E-04 2.06679052E-03 2.17768301E-04
 3 12 0.00000000E+00 0.00000000E+00 1.72698319E-05 6.44072990E-05 1.82086400E-05
 3 13 4.81904524E-05 0.00000000E+00-3.48064902E-04-1.98840694E-04-7.85914689E-05
 3 14 0.00000000E+00-9.40225717E-04 6.97131330E-05 4.62673223E-04 0.00000000E+00
 3 15 1.38256894E-05 7.11611075E-05 8.56186940E-05-1.21387086E-05 0.00000000E+00
 3 16 0.00000000E+00 9.80520712E-05-7.57103710E-04-2.05883774E-04-3.19877399E-05
 3 17 0.00000000E+00 1.87123368E-03 1.25869156E-03 8.31313931E-05 0.00000000E+00
 3 18-8.61181689E-03-3.93154228E-03 1.17656421E-03 0.00000000E+00 4.78360624E-04
 3 19-2.85670521E-04-5.39473634E-04 4.16266426E-05 0.00000000E+00 0.00000000E+00
 3 20 6.25834832E-06 1.80649917E-04 1.02547461E-03-2.01145433E-05 6.88601835E-06