! Ethane bond rotation M06-2X/6-31++G(d,p)
 $SCF    DIRSCF=.TRUE. $END
 $CONTRL RUNTYP=NEBPATH $END
 $CONTRL INTTYP=HONDO ICUT=21 ITOL=31 MAXIT=200 $END
 $CONTRL SCFTYP=RHF DFTTYP=M06-2X ICHARG=0 MULT=1 $END
 $BASIS  NGAUSS=6 GBASIS=N31 DIFFSP=.TRUE. DIFFS=.TRUE. NDFUNC=1 NPFUNC=1 $END
 $SYSTEM MWORDS=1000 MEMDDI=200 TIMLIM=99999999 KDIAG=0 $END
 $NEB    IMAGES=15 MORINT=.TRUE. SPFORC=300.9 OPTTOL=3.0 $END

 $DATA
ethane
C1
C           6.0  -0.0000741764   0.0000581432  -0.7636382576
C           6.0  -0.0000472835  -0.0000628505   0.7636339864
H           1.0   0.8829414307  -0.4953160036  -1.1564915921
H           1.0  -0.0125734706   1.0125307442  -1.1563101750
H           1.0  -0.8706019711  -0.5169519906  -1.1564798905
H           1.0   0.8704806153   0.5169447850   1.1564821043
H           1.0  -0.8830581509   0.4953145108   1.1564923867
H           1.0   0.0124600065  -1.0125333384   1.1563114377
 $END

 $DATAPD
C           6.0  -0.0001034910   0.0000596312  -0.7636341788
C           6.0   0.0000694937  -0.0000214039   0.7636338184
H           1.0   0.8828888802  -0.4953026212  -1.1565516700
H           1.0  -0.0126218366   1.0125095211  -1.1563610031
H           1.0  -0.8706904311  -0.5169486060  -1.1563450601
H           1.0  -0.8829089046   0.4953658906   1.1565523355
H           1.0   0.0125976236  -1.0124694074   1.1563589483
H           1.0   0.8706476658   0.5170039957   1.1563468098
 $END

