! cis-trans isomerization of butadiene MCSCF(8e,8MOs)/6-31++G(d,p) 
! THIS JOB MAY TAKE LONG TIME!!
 $CONTRL SCFTYP=MCSCF    $END
 $TRANS  DIRTRF=.TRUE.  $END
 $MCSCF  CISTEP=ALDET    $END
 $MCSCF  MAXIT=200  $END
 $MCSCF  SOSCF=.FALSE.   FULLNR=.TRUE.  $END
 $DET    GROUP=Cs   NCORE=9   NACT=12 NELS=12 $END
 $DET    NSTATE=5   ITERMX=3000   $END
 $DET    WSTATE(1)=1,0     $END
 $CONTRL INTTYP=hondo  ICUT=21  ITOL=31 $END
 $BASIS  GBASIS=N31  NGAUSS=6 NDFUNC=1 NPFUNC=1
         DIFFSP=.TRUE.  DIFFS=.TRUE. $END
 $GUESS  GUESS=MOREAD  NORB=112     $END
 $SYSTEM MWORDS=1500   MEMDDI=200   TIMLIM=99999999  KDIAG=0  $END
 $CONTRL RUNTYP=NEBPATH   $END
 $NEB    MORINT=.TRUE. MAXCYC=1  $END

Energy =     -155.0838471027      G_RMS =        0.0000026166
 $DATA  
cis-butadiene
C1
C           6.0  -0.0280167233   1.6423966089  -0.0747435960
C           6.0   0.7534198333   0.5293964760  -0.0255504156
C           6.0   0.2755197779  -0.8365557285   0.2655153003
C           6.0  -0.9146918408  -1.3551480831  -0.1425159288
H           1.0   0.3950230120   2.6032490425  -0.3069991779
H           1.0  -1.0837704278   1.6032394074   0.1285648839
H           1.0   1.8128378310   0.6370532148  -0.1963773041
H           1.0   0.9423731081  -1.4664172881   0.8321063618
H           1.0  -1.6157560751  -0.7767286484  -0.7580720074
H           1.0  -1.2038583976  -2.3790081612   0.1243835403
 $END

Energy =     -155.0881372743      G_RMS =        0.0000015628
 $DATAPD
C           6.0   0.4942971940   1.7965811763   0.2108830486
C           6.0   0.2568988834   0.5835430039  -0.3614918471
C           6.0  -0.2566771264  -0.5799517498   0.3656559618
C           6.0  -0.4931855013  -1.7917463966  -0.2094987779
H           1.0   0.8720316853   2.6207747893  -0.3664529050
H           1.0   0.3120994117   1.9701560981   1.2578035131
H           1.0   0.4534834953   0.4536338094  -1.4139066485
H           1.0  -0.4540758536  -0.4529819571   1.4180135026
H           1.0  -0.3062799644  -1.9654861421  -1.2779913299
H           1.0  -0.8785766340  -2.6345129315   0.3769150723
 $END

 $VEC
 1  1 9.81996068E-03 2.10843195E-04 1.11470344E-04-9.70566595E-05-9.13701308E-06
 1  2 8.31785331E-04 3.91529590E-04-5.12316133E-04 1.50079034E-04-9.25296778E-03
 1  3-1.47820854E-03 2.78095220E-03-1.03569860E-03 9.97321837E-06-2.78599731E-05
 1  4-1.03812953E-04-3.46553264E-05-2.06779270E-05-6.89517111E-06 1.88875925E-01
 1  5 5.69243070E-03-6.02882363E-05 2.77966648E-04-5.51111671E-05-4.29082353E-04
 1  6-4.30025693E-04-1.31476380E-03 1.09256819E-04-1.02310489E-03-2.06818543E-04
 1  7 4.74518328E-03 1.13520918E-03-3.92131792E-04-8.12128114E-04-4.92803382E-04
 1  8-1.48436298E-04-1.45311767E-05 1.44171794E-04 9.77047603E-01 2.79915989E-02
 1  9-5.39896431E-04-1.52099677E-04-2.21180416E-04-1.36696954E-02 3.71959575E-04
 1 10-6.89723640E-04 5.43720113E-04 3.49794804E-02-6.09608862E-03 2.03161714E-03
 1 11-4.83800405E-03-1.43329617E-03-1.63932925E-03-1.95713379E-03 1.61929193E-04
 1 12 3.68285200E-04-1.32037831E-04 2.53714777E-02 8.04398611E-04 6.08948927E-04
 1 13 2.90977293E-04 2.23481809E-04 2.77785975E-03 1.54075926E-03 1.07825252E-03
 1 14 3.20758587E-04-2.30641100E-02-4.81109710E-03-2.94549285E-03-8.83733114E-04
 1 15-2.97764882E-04-2.46633737E-04-1.19015257E-04-3.81840606E-05-1.41637984E-04
 1 16 8.21169348E-05-4.31894850E-05 1.63551529E-04-1.00660964E-03-5.22021561E-06
 1 17-2.33788562E-05 1.01843655E-06-9.85958894E-05 4.99047682E-05-1.90097784E-04
 1 18-1.03985970E-05 3.23725209E-05-1.26655281E-05-7.05024303E-05 5.00005023E-04
 1 19 2.30178287E-04 5.98618893E-06 2.12593256E-05 1.17880704E-05-2.17079988E-04
 1 20 1.38693603E-03 7.86270646E-04 1.56848905E-04-1.69545528E-04 1.33587182E-04
 1 21-3.04632081E-04-2.43522146E-04 1.93662867E-04 4.60841313E-05-3.84792510E-05
 1 22 4.43936822E-05-2.63213188E-04 2.18045786E-04-4.25645416E-04 4.41866814E-05
 1 23 6.99643313E-05-5.33403721E-06                                             
 2  1 6.75752230E-02 2.11543526E-03 1.24375202E-04-2.07040537E-04-8.65911224E-07
 2  2 2.18025177E-03 4.88942009E-04-1.53581633E-03 1.57094274E-04-2.09542698E-02
 2  3-2.03373164E-03 4.41480372E-03-4.28298612E-04-4.22322971E-04-3.67318813E-04
 2  4-1.09525675E-04 7.67133364E-05 4.85487656E-05 3.97060232E-05 9.75142695E-01
 2  5 2.77070694E-02-2.15827039E-04 9.34148929E-05 2.93328622E-05-1.45794840E-02
 2  6 1.14029724E-03 8.72721412E-04-3.22789944E-04 3.83600557E-02-8.18855030E-03
 2  7 3.03800733E-04 1.36140571E-03-1.42629807E-03-1.26347038E-03-2.11161578E-03
 2  8-1.49165851E-04-9.04998523E-05-1.42068476E-04-1.89292619E-01-5.07515751E-03
 2  9-5.87361284E-05-1.25148157E-04 4.06412835E-05 5.08291936E-03 3.04091291E-04
 2 10 1.75047647E-03-3.57014911E-04-1.54550623E-02 1.27979701E-04-5.19141688E-03
 2 11 1.22872591E-04 6.61256196E-05-1.82163002E-04 3.21253726E-04-2.65983050E-04
 2 12-1.25108886E-05 1.44053112E-04-5.88167189E-03-2.79605769E-04-4.37586281E-05
 2 13-1.45595475E-05 9.24129698E-07-9.84499318E-05 8.04639129E-05-1.83695925E-04
 2 14-1.53402108E-05-7.04322315E-04-1.27647144E-03-4.21425627E-04 4.05681130E-04
 2 15 1.24783954E-04 5.10384046E-05-1.70242434E-05 2.46003254E-05 1.23336060E-04
 2 16-5.40951066E-05-4.87460738E-05 4.24062718E-04-1.14084993E-04-4.14032939E-06
 2 17-8.43574237E-05 1.64714860E-05-8.17003307E-05-7.56412726E-05 1.53572101E-04
 2 18 8.89167837E-05-1.17610896E-05-1.44886089E-05-1.59095897E-04 1.35946544E-03
 2 19 8.15637655E-04 2.74784409E-04 3.43383376E-05-4.47254243E-05-1.73557325E-05
 2 20-4.91677331E-05-7.98156037E-05-6.57947825E-05 4.36452966E-05-6.48737176E-05
 2 21 4.68370443E-06 1.33349229E-04-1.93894933E-04-5.09507550E-05-7.72474597E-06
 2 22-1.33793165E-05 3.44202979E-06 1.36830564E-05-9.52773360E-04-9.41133249E-06
 2 23-5.69194309E-06 2.42760750E-06                                             
 3  1 9.93225470E-01 2.81610248E-02 2.09970365E-04-2.93424266E-04 1.98600587E-05
 3  2-1.30540177E-02-4.80376745E-04 7.59662071E-04-3.87285198E-05 1.12052215E-02
 3  3 1.21056012E-03-1.53624299E-03-6.53426280E-05-1.53626703E-03-1.45724808E-03
 3  4-2.33828747E-03-1.60000914E-04-1.51889538E-04-1.46298215E-04-6.88941888E-02
 3  5-1.68598355E-03-1.43035706E-04 1.85063535E-04 2.15627763E-05 3.67922047E-03
 3  6-1.20954816E-03 1.66493731E-03-4.50447162E-05 2.49474229E-03-1.37641588E-03
 3  7-4.37912792E-03 1.02304386E-03-1.74926767E-04-1.94243937E-04 1.79968035E-04
 3  8 7.40866644E-05 5.48399900E-05 5.84338854E-05 3.16444156E-03-6.51390325E-05
 3  9-7.59073756E-05-8.19639754E-05 6.72791664E-05-1.76176428E-04 1.53768248E-04
 3 10 2.97599151E-04-1.33243775E-04-6.29902832E-03-1.48852962E-03-3.17788639E-03
 3 11-7.72485603E-05 2.39558134E-05 1.09966685E-04-5.51550712E-05 1.62770653E-05
 3 12-1.62637176E-05-3.25179509E-05-1.87798020E-04 6.52815498E-06 1.40438996E-05
 3 13 3.14699585E-05 2.78462526E-05 5.35689510E-04 1.16751183E-04-1.67633394E-04
 3 14 1.73973030E-04-3.20993192E-03-1.29653971E-03-1.31297898E-03 7.72095646E-05
 3 15-3.14109872E-05-5.96132906E-05-3.75106990E-05-3.30155280E-06 1.05422446E-05
 3 16 4.92786848E-06-1.71260110E-04 1.43771862E-03-1.30888457E-03 1.73445192E-04
 3 17 2.34601944E-04-6.39672693E-05-1.36764856E-04 1.29407707E-03-1.66446356E-03
 3 18-2.85106110E-04-7.50164655E-05 6.56578208E-05 2.62842322E-06 4.32060286E-05
 3 19 1.15107235E-03-1.49402866E-04 5.61953251E-06 2.25262433E-05 1.59881372E-05
 3 20 3.44259850E-04-7.93808636E-05-1.35338593E-05 1.03332297E-05 5.21165633E-06
 3 21 3.10790337E-06 1.15407164E-04 2.08256154E-04 5.51862569E-06-2.23673936E-05
 3 22 3.41806722E-06-5.93354797E-06-3.77650427E-04-1.34715493E-03-3.60447816E-06
 3 23-1.05072308E-06-1.71940219E-07                                             
 4  1 2.72754539E-04-6.33767326E-06-3.14950313E-05 1.10586334E-05 3.58505161E-05
 4  2 4.87411274E-04 2.39763449E-04 9.25733447E-05-3.38249395E-05-3.76965645E-03
 4  3-3.60774883E-04 1.93458654E-03-4.67006868E-04-2.78697855E-05-5.62109678E-05
 4  4-4.76593929E-05-2.03446623E-05-3.26317792E-06 1.77710830E-06 8.83040727E-04
 4  5-1.62904237E-04 3.23430994E-05 8.46096389E-05-6.01075254E-05-6.15710193E-05
 4  6-1.61770896E-04-3.53219582E-04 1.63141084E-04-5.90560006E-03 4.17892164E-04
 4  7 3.69612453E-03-1.02313470E-04 2.93027822E-05 7.26609509E-05-4.03826539E-05
 4  8 6.60618737E-05 2.60390649E-05-2.47263209E-05-2.67589023E-02-2.52259724E-04
 4  9-3.46097016E-04-1.45557664E-04-1.29626572E-04 3.45301275E-03-1.93582266E-03
 4 10-9.00220027E-04-6.58929783E-04 2.42112791E-03 1.76733199E-03 4.32920319E-03
 4 11-9.71245262E-04-2.64931243E-04-1.81660287E-04-7.27818230E-07-1.02892424E-04
 4 12-1.77654205E-04 7.27750422E-05 9.96474461E-01 2.59099642E-02 2.18453185E-03
 4 13 1.00698661E-03 7.53288086E-04-1.50139742E-02-9.49105773E-05-3.95616517E-05
 4 14-3.03467433E-05 1.18811548E-02 1.77243354E-03 7.32234552E-04 7.75264196E-04
 4 15-1.63725100E-03-1.87184485E-03-2.16805420E-03 2.52383624E-04 3.41478063E-04
 4 16-9.98086011E-05-9.94190184E-06-3.79942077E-04-1.41270763E-03-3.12724269E-06
 4 17 1.52421858E-06-3.51128246E-08 2.11509185E-05 1.45787262E-04 1.68756784E-04
 4 18 1.81909680E-05 1.93813620E-05 3.00060790E-06 2.63102745E-05 4.22826882E-04
 4 19-8.88895467E-06-1.57300817E-05-7.45909321E-07-9.86667740E-06 3.04858970E-05
 4 20 5.76676007E-05 1.07633852E-03-1.09466473E-04 6.42656437E-05-7.96131477E-05
 4 21-1.80157517E-03 1.19328706E-04-1.79576151E-03-2.23289498E-04 2.97441634E-04
 4 22-2.44512186E-04-1.87038830E-03 2.63687591E-04-1.41829541E-03-3.77366981E-05
 4 23-4.17255097E-04 1.45512724E-04                                             
 5  1-3.60297669E-02 6.31635139E-02-3.64435933E-02 3.50185750E-02-4.96197921E-04
 5  2 4.86537095E-02-2.04457404E-02 2.45323722E-02-2.63077068E-03 7.73610971E-02
 5  3 1.40737773E-02-1.22891152E-02 2.18430914E-03 1.24459017E-03 3.51854879E-03
 5  4-3.35255901E-03-4.17841078E-05-9.82150530E-04-1.59432428E-03-1.32514582E-01
 5  5 2.51783740E-01 5.13371660E-02-1.90986208E-01 2.79173912E-02 1.95409092E-01
 5  6 2.95704967E-02-6.60662018E-02 5.41249401E-03-9.34890850E-02 1.02146634E-02
 5  7-2.49399918E-02-5.60926354E-03 2.41727732E-03 1.43083028E-02-1.03649345E-02
 5  8 7.38813526E-03-3.94445083E-03-7.18279361E-03-1.35942205E-01 2.60455229E-01
 5  9 1.44541452E-01 1.26693983E-01 1.62061127E-02 2.08964309E-01 5.53950370E-02
 5 10 3.95225049E-02 1.25465756E-02-1.24470496E-01 2.38044204E-02 1.58581905E-02
 5 11 1.51222719E-02-1.40902534E-03 1.43768217E-02-7.60026714E-03 7.25172257E-03
 5 12 2.55601171E-03-9.68145886E-03-3.25332223E-03 1.00827351E-03 2.67461732E-03
 5 13 3.83390769E-03 1.99835794E-03-9.78690222E-03-8.24976647E-03-4.33169472E-03
 5 14 7.48935038E-04 1.09960347E-01 2.31852145E-02 6.51082132E-03 6.34633722E-03
 5 15 2.15224557E-03 2.92046748E-04-1.09370793E-03 3.20577983E-03 2.49985595E-04
 5 16 1.04075309E-03 4.06863829E-02 2.36826910E-02-8.57842972E-04-2.06221201E-03
 5 17-1.70315196E-03 5.67998285E-04 4.72665077E-02 2.67066685E-02 7.08343251E-03
 5 18 3.18561128E-03 1.13302707E-03-8.60166362E-04 1.15111876E-01 5.05094941E-02
 5 19 1.08068551E-02-9.03761537E-03-3.66615209E-03 1.94157572E-03 1.15370539E-01
 5 20 4.75684417E-02 9.33268157E-03-4.36911806E-03 7.58910597E-03-5.10636190E-03
 5 21-1.05159845E-03-1.60001119E-03 1.31804490E-03-2.87579645E-04-2.38879341E-04
 5 22 4.24390269E-05 1.91267468E-03 2.73694528E-03-2.65578869E-03-5.85520677E-04
 5 23-3.10448301E-04-8.97919256E-05                                             
 6  1-1.62334193E-01 3.07472624E-01-1.13219848E-01 1.86900671E-01-7.15816707E-03
 6  2 2.86501641E-01-5.13048064E-02 7.70239885E-02-1.60146270E-03-1.71114140E-01
 6  3-1.76157812E-02 2.76379898E-02-1.45694370E-03 1.03484059E-02 2.55934140E-03
 6  4-1.27015750E-02 9.08030875E-03-6.62477012E-03-4.75159337E-03 1.63134979E-02
 6  5-3.82832771E-02 2.68850159E-02 4.28052656E-02-1.30005005E-02-5.13470170E-02
 6  6 2.42381254E-02-6.70568675E-05-2.53158679E-03 1.07757744E-01-2.31038091E-02
 6  7 3.43062432E-02-5.78969511E-04 2.74029059E-03-1.47109628E-03 2.04657124E-04
 6  8-5.08377267E-03 5.36224033E-04 2.17717399E-03 4.57806777E-02-8.75841098E-02
 6  9-5.30177918E-02-7.17355134E-03-2.64963435E-02-7.33973094E-02-2.30940120E-02
 6 10 5.41256959E-03-1.47378626E-02 3.19598211E-02 7.35376888E-03 5.96100449E-03
 6 11-2.18655406E-03 9.22443042E-04-4.29723006E-03 1.82490854E-03 1.24670286E-03
 6 12-2.72504816E-03 3.57259798E-03 8.02261850E-04 6.35332527E-04-1.21880083E-03
 6 13 1.73489200E-03 1.27054714E-03 5.62355306E-03 5.03306167E-03 3.38756178E-04
 6 14 5.78213186E-03-6.75854367E-03 1.84461993E-03 7.87292507E-04 1.99961282E-03
 6 15-1.34605140E-03 8.52271310E-04 3.34637944E-05-3.91026644E-04-9.34065113E-04
 6 16-1.54501858E-04 2.04934060E-01 1.14544317E-01 1.53733376E-02-8.14926248E-03
 6 17-1.25299547E-02 3.58833952E-03 1.95093809E-01 1.08090240E-01 1.84756996E-02
 6 18 1.39357865E-02 3.15091610E-03-3.21347299E-03 9.15872480E-03 1.61422048E-02
 6 19 5.78873009E-03 4.69844245E-04-1.41257851E-04-6.25682968E-05-6.50575598E-02
 6 20-4.03321603E-02-9.76055912E-03 2.31848959E-03-3.05417571E-03 2.20064188E-03
 6 21-6.57981722E-04 3.07697324E-05 1.34952556E-03 2.56588304E-04 3.24749200E-04
 6 22 2.45883970E-04 4.41947186E-04 1.44532739E-03 4.32035437E-03 7.59431357E-05
 6 23 2.44330696E-05 5.01365336E-05                                             
 7  1 2.93661147E-02-6.17821416E-02 1.18794653E-01 4.02146602E-02-2.42984550E-02
 7  2-5.73051037E-02 3.53351527E-02 1.29558711E-02-5.32049568E-03-1.30952894E-02
 7  3-1.79515609E-02 5.96316337E-03 4.46197062E-03-5.93306906E-04 1.50209100E-03
 7  4 1.33414667E-03-3.92764663E-03 1.11247106E-03 9.28101453E-04-9.13885078E-02
 7  5 1.77478240E-01 2.53800617E-01 3.77401890E-02-5.50306683E-02 1.74059782E-01
 7  6 1.32683013E-01-2.76482709E-03-1.66121010E-02-1.57079710E-01-7.26284354E-03
 7  7 6.13895267E-02-1.18902759E-02 1.63434369E-02-9.75762621E-03-7.36263523E-03
 7  8 4.96312529E-03-4.06418705E-03 2.26854986E-03 8.20449795E-02-1.59400585E-01
 7  9-1.10281395E-01 8.93369715E-02-1.06073840E-01-1.53613394E-01-8.28831561E-02
 7 10 4.25028527E-02-5.39371910E-02 1.51030196E-01 3.89443252E-02 4.49777327E-02
 7 11-2.38882272E-03 8.96234035E-04-1.37428749E-03 7.28565295E-04 1.29113104E-02
 7 12-9.47434183E-03 6.05661323E-03 1.44868197E-03 3.09857905E-03-8.96680682E-04
 7 13 6.20912828E-03 1.38693985E-03 5.62826188E-03 6.79824446E-03-9.04155687E-03
 7 14 1.12219593E-02 2.07155499E-02 1.19962151E-02 1.25649748E-03 9.42791399E-03
 7 15-3.73027131E-03 2.14563814E-03-6.14303992E-04 1.28990904E-03-3.77719703E-03
 7 16-3.90963256E-04 2.30112759E-02 2.32064785E-02-4.78645015E-03 6.45230542E-04
 7 17-8.85731357E-04 1.72463506E-04-9.21373226E-02-5.74800770E-02-2.15160681E-02
 7 18-6.49717895E-03 7.57809618E-04 1.34635180E-03 2.43206673E-01 1.57580883E-01
 7 19 3.86896969E-02-1.44304733E-02-1.41363464E-03 2.16510989E-03-1.88284888E-01
 7 20-1.22441002E-01-3.09746174E-02 6.67236823E-03-6.89102308E-03 5.66135524E-03
 7 21-6.73487280E-03-8.38820138E-03 7.53890544E-03 5.99367816E-04-3.25947216E-06
 7 22 3.89276564E-04 2.90710343E-03 2.01385246E-03 9.96246641E-03 8.41349132E-05
 7 23-1.51954857E-05 3.04636304E-04                                             
 8  1 8.10085185E-03-1.69525633E-02-2.19216667E-01-1.49204731E-01 6.78237861E-02
 8  2-2.21851434E-02-1.00961007E-01-6.00189771E-02 3.22112033E-02 5.10066469E-02
 8  3 2.06869456E-02 6.89341189E-03-2.33160895E-03 6.68747736E-03-5.90928760E-03
 8  4 1.18698208E-04-4.31279253E-03-9.37486815E-04 2.39111113E-03-3.63758514E-02
 8  5 7.56002549E-02-1.48889601E-01-1.70478984E-01 3.86523094E-02 6.73333990E-02
 8  6-3.95413428E-02-5.87973052E-02 1.72811910E-02-2.96414262E-02 5.47221143E-03
 8  7-2.46490544E-02 1.82910605E-03 1.57772791E-03 1.75593748E-03-2.22710542E-03
 8  8 5.14955157E-03-1.50986669E-03 1.23060928E-03 1.95741281E-02-3.52772225E-02
 8  9-8.95345275E-02 2.68929972E-01-1.42176005E-01-3.75410108E-02-5.56326993E-02
 8 10 1.20629237E-01-7.46872334E-02 1.14255776E-02 1.35445432E-03-6.61713549E-03
 8 11 7.40807239E-03-6.27770188E-03 1.12652078E-02-3.22147497E-03 1.32040838E-02
 8 12-9.35834905E-03 3.42301500E-03 1.24959977E-03-3.43559557E-04-4.11936996E-03
 8 13 9.19701874E-03-6.61003899E-03-9.69124585E-03 4.02487548E-03-2.46749889E-02
 8 14 9.04822857E-03-3.96392806E-03 2.91446977E-03 3.38173371E-03-3.06968241E-03
 8 15-4.52456829E-03 6.47075206E-03-2.30814838E-03 6.26810587E-03-5.21519216E-03
 8 16 8.73902771E-04-1.48965019E-01-1.04138530E-01-2.87696625E-02 1.38992007E-03
 8 17 8.24658365E-03-1.38894717E-03 1.35323685E-01 9.78926945E-02 2.49220762E-02
 8 18 6.77983168E-03-1.33613988E-03-9.84507114E-04-6.10416935E-02-4.91681765E-02
 8 19 3.21107921E-04 3.30779579E-03-2.05709490E-03-4.12149184E-04-2.01812458E-01
 8 20-1.45547315E-01-3.22117835E-02 7.19045679E-03-5.07534018E-03 5.54430316E-03
 8 21-1.07931511E-02-1.78452907E-02-6.64671654E-03 8.07937213E-04 3.22575042E-04
 8 22 4.44866510E-04 1.17704648E-02 1.84444626E-02 1.23658298E-02-3.99825988E-04
 8 23-5.67144458E-04-9.85684851E-05                                             
 9  1 9.70921144E-05 1.70257565E-03 2.50118304E-01 1.73776848E-01-7.18237311E-02
 9  2-9.59245742E-03 1.46838364E-01 1.10465308E-01-4.00130750E-02-8.35474230E-02
 9  3-2.54418696E-02 5.87605711E-03 5.88228015E-03-2.33252346E-02 2.27463908E-02
 9  4 5.48297098E-04 1.04673675E-02 2.92792386E-03-6.01017820E-03-1.18660617E-03
 9  5 6.55330749E-03-2.11085791E-01-1.54437513E-01 5.02645594E-02 2.14453398E-03
 9  6-1.34905784E-01-8.23027998E-02 3.50239163E-02 4.73676192E-02-1.15431285E-02
 9  7 3.63045956E-02-6.02890686E-03-2.24013197E-02 2.24069429E-02 7.01619506E-04
 9  8 9.50239784E-03 2.36531562E-03-4.46911183E-03-3.02535348E-02 6.57137549E-02
 9  9-1.98489228E-02 2.28818792E-01-8.71354144E-02 5.71216954E-02-8.88036047E-03
 9 10 1.00916949E-01-4.40061660E-02 6.09911726E-02 6.77618835E-03 2.25587522E-02
 9 11-7.92751372E-03-6.28094676E-03 9.16891803E-03-2.79787308E-03 7.81138442E-03
 9 12-4.09802120E-03 4.16658142E-04 7.32839310E-04-1.04819100E-03-3.43995618E-03
 9 13 6.46713915E-03-7.77055109E-03-8.84432847E-03-5.44780455E-03-1.88271564E-02
 9 14 1.20343891E-04-1.08975771E-02-4.65308260E-03-1.40801795E-02 2.56726951E-03
 9 15-2.00042730E-03 4.10568527E-03-1.70932402E-03 6.52501820E-03-3.30242132E-03
 9 16 1.06778003E-03 1.96464178E-01 1.60139615E-01 4.02077353E-02-1.74834102E-03
 9 17-7.76232898E-03 1.61274331E-03-1.94051804E-01-1.59765817E-01-3.81889252E-02
 9 18-7.73300598E-03 1.42029652E-03 1.56822029E-03-1.68770984E-01-1.36582140E-01
 9 19-2.19309020E-02 6.61170128E-03-1.33427931E-04-1.11032135E-03-9.91435474E-02
 9 20-8.54904388E-02 1.66555566E-04 3.52199285E-03-6.57397978E-04 2.37828591E-03
 9 21-1.11754103E-02-1.91357210E-02 3.04033767E-03 3.23748949E-04-7.16277870E-04
 9 22-8.81032936E-05 9.81554238E-03 1.63103260E-02-2.56368536E-03-6.24689596E-04
 9 23-4.70285484E-04-1.88186336E-04                                             
10  1 8.71613269E-02-1.63249963E-01-1.57619257E-01 2.84095905E-01 1.28141604E-01
10  2-1.02473980E-01-4.40381457E-02 1.01105525E-01 1.01678861E-01-9.88156831E-02
10  3-8.19029914E-03 3.86989124E-02 1.45780738E-02 7.63772546E-03-8.09937359E-03
10  4 6.65318101E-03 1.64642400E-02 1.81067335E-03-7.08630848E-03 9.77350941E-02
10  5-2.02458103E-01 2.39166957E-01-2.53538732E-01 1.66507068E-01-1.44117764E-01
10  6 9.00428610E-02-5.17434927E-02 1.16018713E-01 1.15720944E-01-3.10949057E-02
10  7 9.31080317E-03 3.16021865E-02 4.30678083E-03 1.93646528E-03 4.81273248E-03
10  8 1.74692922E-02-7.62000929E-03 1.09457627E-02-2.46554395E-02 4.65579087E-02
10  9 5.65863471E-02-2.52882570E-02-1.83154018E-01 6.21653119E-02 3.95589062E-02
10 10-1.73290543E-03-1.20819709E-01 3.77674028E-02-1.34393204E-02-1.66383281E-02
10 11-2.49254894E-02 2.33435506E-04-3.50290028E-03 5.22305589E-04 9.55233936E-03
10 12 3.38574532E-03 8.78041509E-03-1.73986752E-02 5.14983050E-02 2.00118065E-02
10 13 1.03623728E-01 3.96218515E-02 3.76781072E-02 2.00479474E-02 2.42338461E-03
10 14 5.98080581E-03-5.87227432E-02-5.16558538E-03-7.44367327E-03-1.71664838E-02
10 15 3.51867480E-03-8.00167299E-03-2.56706678E-03-1.82402557E-03 2.28429054E-04
10 16 8.40212769E-04 3.81042535E-02 5.35803162E-02-9.55290836E-03-2.31685246E-03
10 17 3.65968618E-03 3.57277942E-03 4.21326603E-02 5.62443213E-02 6.51735336E-03
10 18-1.00344505E-03 4.67809251E-03 3.04234435E-03 3.52540760E-02 5.19603268E-02
10 19 2.18043380E-02 3.00593925E-03-3.44968043E-03 3.46355847E-03-3.03231384E-02
10 20-5.28268793E-02-1.11276623E-02 1.08558765E-03-3.58941371E-04-2.81561263E-03
10 21-4.10256453E-02-4.57771331E-02-1.99773182E-03 2.12293294E-03-1.81852819E-03
10 22 8.63126723E-04 6.56832964E-04-5.25868732E-03 4.18976501E-03 7.06234082E-04
10 23-1.80137600E-03 5.14375215E-07                                             
11  1-1.95421172E-02 1.06526760E-02 1.04347754E-02-5.92466148E-02-1.12845766E-01
11  2-2.70698887E-02-2.68463120E-03-6.56071352E-03-4.27435751E-02-4.06018993E-02
11  3 1.28920854E-02 2.95051417E-03 9.35499943E-03 3.32908726E-03 2.04789198E-03
11  4 3.40339249E-04-1.84697584E-03-8.68309159E-04 1.18111347E-03-2.34442081E-02
11  5 7.52109953E-02-4.82965712E-02 2.06444741E-01 1.97143580E-01 6.07153924E-02
11  6-2.41303799E-02 9.91306501E-02 1.31746966E-01 1.42170174E-01-2.65314062E-02
11  7-2.17205767E-02 2.05421358E-02-8.01099663E-03 2.28781577E-03-5.36544579E-03
11  8-8.81970812E-03-1.18355176E-03 1.45140198E-02-4.56976687E-02 3.88424976E-02
11  9-3.27534807E-02-1.68967720E-01-2.75036226E-01-6.33546849E-03 3.98432499E-02
11 10-9.33530919E-02-1.56843418E-01-2.05409741E-02-3.24710932E-02-7.59978817E-02
11 11-2.52838402E-03 4.78726598E-03 9.32589013E-04 3.02920720E-03 4.16742565E-03
11 12 1.35215892E-02 9.23361694E-03-1.21788037E-01 3.55063627E-01 1.00316563E-01
11 13 5.31797311E-01 8.23463306E-02 2.22775093E-01 3.95183693E-02 1.10417039E-01
11 14 4.46992331E-02-7.78549623E-02-1.95102055E-02 2.24875250E-02-4.15888857E-02
11 15 8.62351086E-03-4.38131025E-02-7.28897190E-03-1.53617726E-02 1.74149153E-02
11 16 6.15430373E-03-1.32860705E-02-2.27047897E-02-2.23048050E-03 1.01323224E-03
11 17-9.95906169E-04-5.29050107E-04-9.58148399E-03-1.10226044E-02 1.95832230E-02
11 18 1.13966892E-04-1.27062516E-03-4.72072219E-04-1.22175430E-02-1.03708391E-02
11 19 1.18701832E-02-5.20211281E-04 2.56271477E-03 2.52332771E-03-1.97898736E-02
11 20-3.65885717E-02-1.55744015E-02-5.25282073E-04-3.24635147E-03-3.35758443E-03
11 21-3.93304594E-02-7.77702626E-02-3.23410783E-02 1.17689848E-02-7.05704829E-03
11 22 9.79152029E-03-4.42104012E-02-6.63629941E-02 1.94478145E-02 1.16399198E-03
11 23-4.27448289E-03 2.73464153E-03                                             
12  1-3.91256801E-03 5.17525445E-03-4.25341639E-03-1.33989415E-02-2.01289996E-02
12  2-1.85411726E-03-8.01638174E-03-4.69305089E-03-1.19364972E-02 4.35723576E-02
12  3 1.34152801E-02 4.44781835E-03-9.26938136E-03-3.85827367E-04 3.18188977E-04
12  4 4.22183359E-05-1.16773623E-03-2.16348339E-04-5.94824689E-04-7.96292515E-03
12  5 2.04691072E-02-1.24466424E-02 1.31741950E-02 3.65418514E-02 1.19604773E-02
12  6-2.41072335E-03 8.98477646E-03 1.81004172E-02 8.81154295E-02 6.70735234E-03
12  7-6.08277418E-02 9.64407535E-03-2.91424732E-04-9.40098639E-04-4.80885365E-04
12  8-6.08222949E-04-2.14110300E-03 8.40649769E-04-1.53174570E-02 4.81110913E-03
12  9-2.37151483E-02-3.27190387E-02-3.38585778E-02 1.55428983E-04-1.99818545E-02
12 10 2.64666476E-02-1.77388990E-02 2.27019854E-02-8.24690477E-02-7.24497586E-02
12 11 2.17673050E-02 2.62659178E-03 7.09054337E-03-5.77767442E-03 9.37804434E-03
12 12-8.09353865E-03-1.23277637E-03-1.22379437E-02 4.16449124E-02 3.47630129E-02
12 13 4.14621435E-02 4.95176035E-01 2.47278140E-02-1.13511599E-02-5.05271346E-02
12 14 2.59138309E-01-1.47669356E-01-4.26736984E-02 4.54398653E-02-3.55595772E-02
12 15-6.63442079E-03-2.39113138E-03 1.97206443E-03 1.01854496E-02 2.20417229E-03
12 16 1.19995125E-02-2.54279444E-03 2.73497027E-04-9.88425964E-03-1.06153761E-04
12 17-1.47105592E-04-4.74112330E-04 6.27236175E-04-2.82075006E-03 9.78659126E-03
12 18 3.57119523E-04 1.48005646E-04-1.63301879E-04-7.39425245E-04 2.07244521E-03
12 19 1.35788244E-02 8.21435809E-05 2.51163583E-04 1.82159338E-04-2.66660354E-02
12 20-3.72418287E-02-1.46742537E-02-2.27112037E-03-4.96995315E-04 6.99038974E-04
12 21-2.69772759E-01-2.34144971E-01-7.01553726E-02-5.71224528E-03 2.92924332E-03
12 22 1.63828912E-03 2.15147241E-01 1.85788597E-01 6.42170737E-02 1.34895872E-03
12 23 2.24601849E-03 6.18598663E-03                                             
13  1-7.87547424E-03 3.86849881E-03-3.44833980E-03-2.72655026E-02-6.51687999E-02
13  2-5.10315521E-03-1.15548734E-03-5.79051761E-03-2.37024411E-02 2.32569016E-04
13  3 1.36009249E-02 5.48474616E-03 1.67917326E-03-6.01721425E-04 1.39013053E-03
13  4 6.16083925E-04-1.14970369E-04 1.06714379E-03-1.74837570E-03-2.04824342E-02
13  5 5.52918409E-02-2.28416256E-02 4.23651374E-02 2.27424243E-01 6.27399059E-02
13  6-2.56789460E-02 1.91430747E-02 1.34721378E-01 1.42853195E-01-8.55788783E-03
13  7-4.99720010E-02 1.87515858E-02-1.00306355E-02 4.78093912E-03-1.55831668E-03
13  8-8.94922759E-03-3.29776569E-03 6.26102779E-03 8.21773984E-02-2.20225796E-01
13  9 4.05100196E-01 5.54486766E-02-4.31220420E-02-1.81182507E-01 1.65613728E-01
13 10-1.67218137E-02-4.22287599E-02-1.95502205E-02-5.99195280E-02-7.06170735E-02
13 11 1.15512346E-02-5.21186605E-03 1.92467537E-02 8.03210015E-03-1.06207480E-02
13 12 1.28907556E-03-6.50330042E-03 7.63682146E-02-3.32401021E-02-3.07687189E-01
13 13 4.55539752E-01 1.58448936E-01-4.13103127E-02-9.74681901E-02 1.04450239E-01
13 14 1.20710039E-01-9.14669705E-02-4.70464950E-02 2.25390226E-02-4.50531420E-02
13 15-9.06570223E-03-3.14135247E-02 8.68354894E-03-2.92847282E-02 1.23856948E-02
13 16 3.40464244E-03-2.80486135E-03-1.47165205E-03-3.12619880E-03 2.50368609E-04
13 17-2.23916580E-04-1.32588058E-04-5.70287168E-03-1.03374086E-02 1.42724171E-02
13 18 2.26939411E-04-1.97962266E-04-2.08219963E-04-2.85888615E-02-3.68649192E-02
13 19 7.53210026E-04 3.94972485E-04 4.83583997E-04 3.09592826E-03 4.44062424E-02
13 20 4.77636488E-02 4.11093928E-03 3.68402481E-03 1.17560366E-03-8.34804143E-05
13 21-9.01190451E-02-6.28762942E-02-5.06395978E-02 1.38452455E-03-5.11046536E-03
13 22 7.58739537E-03-3.64667441E-02 3.32210366E-03 1.67137068E-02-6.43536052E-03
13 23-1.08521915E-02 5.72509876E-03                                             
14  1-2.85542797E-03 7.17133533E-03-4.15989181E-03-9.77973408E-03-1.32861069E-02
14  2 1.60459883E-03-5.51541469E-03-2.12181651E-03-1.02917494E-02-2.72809979E-02
14  3-5.63710277E-03 3.77696407E-03-1.46046379E-03 4.27495765E-04-4.79208292E-04
14  4-5.97571591E-04-8.20793332E-04-1.36666184E-03 1.80932584E-03 2.46780760E-03
14  5-8.35412086E-03-7.69867861E-03 7.96098756E-03-7.15722776E-02-1.23939330E-02
14  6-2.96798343E-03 7.51571099E-03-4.47643444E-02 1.74929324E-02-1.11332580E-02
14  7 1.54434604E-02-6.35529196E-03 2.72337785E-03-6.58196673E-04-5.72934359E-04
14  8 2.37240314E-03 1.63459572E-03-1.24360485E-03-3.54276653E-02 8.84881096E-02
14  9-1.22120279E-01-3.56529663E-02-6.69073948E-03 9.59014423E-02-5.60156189E-02
14 10-1.82194330E-02-1.57302939E-03-1.51289742E-01 4.87330661E-02 1.11790702E-02
14 11 1.17116387E-02-2.58184967E-03-5.48558710E-03-9.92114330E-04-1.14633012E-03
14 12 1.58274798E-04 1.63969704E-04 1.32136940E-01-3.02834557E-01 3.12007810E-01
14 13 6.34086445E-02-4.44893441E-02-2.60827592E-01 1.18422846E-01 2.69659748E-02
14 14-3.24373590E-02 1.99832740E-01 3.77279961E-02 1.59154056E-02 1.50692838E-02
14 15 1.32061808E-02-7.98281731E-03 6.51352269E-03 5.14439526E-03-6.81743777E-03
14 16 1.20348197E-02-3.82279795E-03-6.83348218E-03-1.24169968E-03-1.03314902E-05
14 17-2.18295295E-04-5.47818719E-04 5.05110582E-03 4.42163550E-03-9.18144847E-04
14 18 2.51614200E-04 1.88324184E-05-4.29676963E-04 5.81608204E-03 1.39719304E-02
14 19 3.84115597E-03-1.76927918E-04 8.81178722E-05-1.24282691E-03-1.06141153E-03
14 20-1.15622184E-02-7.12959100E-03-2.13297196E-03-6.11540064E-04-9.72825718E-04
14 21-1.75481463E-01-1.10218657E-01-1.36775328E-02-4.84024389E-03 8.99147184E-03
14 22-8.53789041E-03-2.20847755E-01-1.49318591E-01-1.91033975E-02 2.13951487E-04
14 23-1.24518717E-02 3.21861787E-03                                             
15  1-3.54515370E-02 1.27848655E-01 1.62796747E-01-1.03104436E-01 3.02479828E-01
15  2 1.04670994E-01 7.20028569E-02-2.50529419E-02 1.99432088E-01-1.27254937E-02
15  3-2.83794926E-02 4.49054956E-03 3.47913012E-02-7.97353218E-03-6.04301933E-03
15  4-3.43699302E-03-1.21768857E-02 1.38988094E-02-1.29044981E-02-5.65790122E-03
15  5-4.80619158E-02 7.48730690E-02 3.67372719E-02 3.25398697E-01-7.04505682E-02
15  6 6.97897121E-02 2.60777786E-02 2.10688837E-01-1.29720867E-01 4.27097798E-02
15  7 7.04499835E-02 2.42967952E-02 8.71754343E-03 4.20888711E-03 3.02760610E-03
15  8 8.16964295E-03-1.49057314E-02 5.25079122E-03-9.78875427E-03 3.04257167E-02
15  9-1.87163672E-01 8.36453986E-02 2.41297864E-01 4.76990719E-02-1.19757897E-01
15 10 6.20814424E-02 1.24106500E-01 1.37737952E-01-2.53761290E-03 8.46218300E-02
15 11-3.92448399E-02 6.60866042E-03-2.38954789E-03-9.43067850E-03 2.75117522E-03
15 12-6.31262637E-04 1.08116483E-02-2.06319171E-03-1.13524206E-02 1.06811613E-01
15 13-1.33481909E-01-5.80966644E-02-1.43170486E-02 1.85794560E-02-1.63648316E-02
15 14-4.08426342E-02-5.36886237E-03 2.57885028E-02-4.10584410E-02 4.07595496E-02
15 15-5.35175433E-03 9.45086398E-03 3.55105609E-04 9.04744306E-03-2.07806613E-03
15 16 4.17449354E-03-1.20445514E-02-1.29551786E-02 1.36603126E-02 2.08643981E-03
15 17-3.94002192E-04 6.93260261E-03-1.84236676E-02-2.73802132E-02-4.67553648E-02
15 18 2.08437411E-03-5.07161514E-04 6.91254625E-03 1.17228361E-02 4.31670119E-03
15 19-2.05597771E-02 1.15896391E-03 2.09494640E-03 7.16055995E-03-2.31412103E-02
15 20-1.94996082E-02 2.62928749E-02-2.25057951E-03 1.60534793E-03 4.02160267E-03
15 21 4.94074484E-02 4.83730340E-02 7.42287940E-02-1.73293234E-03 2.67446193E-03
15 22-2.19564334E-03-6.87682652E-02-7.81747293E-02-4.09987858E-02 9.21786876E-04