! Butadiene isomerization 
 $SCF    DIRSCF=.TRUE. $END
 $CONTRL RUNTYP=NEBPATH $END
 $CONTRL INTTYP=HONDO ICUT=21 ITOL=31 ISPHER=1 $END
 $BASIS  NGAUSS=6 GBASIS=N31 DIFFSP=.TRUE. NDFUNC=1 $END
 $SYSTEM MWORDS=1000 MEMDDI=200 TIMLIM=99999999 KDIAG=0 $END
 $GUESS  GUESS=MOREAD NORB=84 $END
 $NEB    IMAGES=15 MORINT=.TRUE. MOLSYM=.TRUE. SPFORC=300.9 TSLOCT=.TRUE. $END

 $DATA
cis-Butadiene
Cn   2

CARBON      6.0   0.7266341258  -0.1339285779   0.2054853339
CARBON      6.0   1.5483762898   0.0882590511   1.2212196067
HYDROGEN    1.0   1.1306249174  -0.5228760578  -0.7157938296
HYDROGEN    1.0   2.5958904435  -0.1437490065   1.1510271805
HYDROGEN    1.0   1.2060328297   0.5191627153   2.1456174249
 $END

trans-Butadiene
 $DATAPD
C    6.0  -0.7202762927  -0.1405128238  -0.0000000000
C    6.0   0.7202762927   0.1405128238  -0.0000000000
C    6.0  -1.2397943728  -1.3609933144   0.0000000000
C    6.0   1.2397943728   1.3609933144   0.0000000000
H    1.0  -1.3756606030   0.7155307984  -0.0000000000
H    1.0   1.3756606030  -0.7155307984  -0.0000000000
H    1.0  -2.3028702301  -1.5194326440  -0.0000000000
H    1.0   2.3028702301   1.5194326440  -0.0000000000
H    1.0  -0.6191407083  -2.2408074648   0.0000000000
H    1.0   0.6191407083   2.2408074648   0.0000000000
 $END

 $VEC
 1  1 7.02793868E-01 1.80828588E-02 2.98574252E-05-6.19111028E-05 1.08429891E-04
 1  2-1.04919446E-02 7.13203092E-04 2.42617991E-04-5.02463523E-04 2.60697233E-02
 1  3-3.35090834E-03-3.71330004E-03 5.95899263E-03-1.49353270E-04-1.69343548E-04
 1  4 3.18696819E-04 1.12881360E-04-2.06238210E-04-2.14012214E-04 7.02793868E-01
 1  5 1.80828588E-02-2.98574252E-05 6.19111028E-05 1.08429891E-04-1.04919446E-02
 1  6-7.13203092E-04-2.42617991E-04-5.02463523E-04 2.60697233E-02 3.35090834E-03
 1  7 3.71330004E-03 5.95899263E-03-1.49353270E-04-1.69343548E-04 3.18696819E-04
 1  8 1.12881360E-04 2.06238210E-04 2.14012214E-04 4.69340237E-02 6.83419987E-04
 1  9-2.27862292E-04-6.82422230E-06 2.22945882E-04 2.27035820E-03 1.15377600E-03
 1 10 7.61433108E-06-9.26058919E-04-2.51803049E-02-4.16840459E-03 5.68821177E-05
 1 11 4.50262388E-03-8.86477442E-06 8.08332860E-05-7.19685116E-05-4.02785020E-05
 1 12 1.58806418E-04 3.02080375E-05 4.69340237E-02 6.83419987E-04 2.27862292E-04
 1 13 6.82422230E-06 2.22945882E-04 2.27035820E-03-1.15377600E-03-7.61433108E-06
 1 14-9.26058919E-04-2.51803049E-02 4.16840459E-03-5.68821177E-05 4.50262388E-03
 1 15-8.86477442E-06 8.08332860E-05-7.19685116E-05-4.02785020E-05-1.58806418E-04
 1 16-3.02080375E-05-1.83514513E-04 1.58681793E-03-1.83514513E-04 1.58681793E-03
 1 17-9.23015940E-05 6.24395569E-04-9.23015940E-05 6.24395569E-04-1.62978902E-04
 1 18-2.19533223E-05-1.62978902E-04-2.19533223E-05                              
 2  1 7.02599146E-01 1.81710531E-02 2.41144928E-04-1.09986516E-04 1.27181646E-04
 2  2-1.38410406E-02-1.80153623E-03 4.75799938E-04-7.55247259E-04 3.37224035E-02
 2  3 3.58241702E-03-1.58406299E-03 5.67320408E-03 5.64300698E-04-5.14454509E-04
 2  4-4.98461891E-05-1.56946122E-04-3.38125913E-04-1.23267077E-04-7.02599146E-01
 2  5-1.81710531E-02 2.41144928E-04-1.09986516E-04-1.27181646E-04 1.38410406E-02
 2  6-1.80153623E-03 4.75799938E-04 7.55247259E-04-3.37224035E-02 3.58241702E-03
 2  7-1.58406299E-03-5.67320408E-03-5.64300698E-04 5.14454509E-04 4.98461891E-05
 2  8 1.56946122E-04-3.38125913E-04-1.23267077E-04 5.06470598E-02 1.12199027E-03
 2  9-1.01488604E-04-8.05854413E-05 2.10296613E-04 1.60284461E-03 9.73116046E-04
 2 10 1.08930090E-04-5.60048277E-04-1.32577090E-02-2.19871044E-03-7.49828033E-04
 2 11 1.60427263E-03-4.29882683E-06 1.87169467E-04-1.82870640E-04-4.09501898E-06
 2 12 1.51820891E-04 1.47692096E-04-5.06470598E-02-1.12199027E-03-1.01488604E-04
 2 13-8.05854413E-05-2.10296613E-04-1.60284461E-03 9.73116046E-04 1.08930090E-04
 2 14 5.60048277E-04 1.32577090E-02-2.19871044E-03-7.49828033E-04-1.60427263E-03
 2 15 4.29882683E-06-1.87169467E-04 1.82870640E-04 4.09501898E-06 1.51820891E-04
 2 16 1.47692096E-04 6.05030842E-06 1.25493895E-03-6.05030842E-06-1.25493895E-03
 2 17-2.50972490E-05 1.57213295E-04 2.50972490E-05-1.57213295E-04-7.54506495E-06
 2 18-9.22458660E-05 7.54506495E-06 9.22458660E-05                              
 3  1 5.09543436E-02 1.48774835E-03-2.11044800E-04-6.28063541E-05 2.52713974E-04
 3  2-2.98991060E-03 1.52018898E-03 8.84266942E-05-1.14803042E-03-8.10126758E-03
 3  3-1.08640461E-02 8.54618236E-04 3.58074624E-03 1.56239107E-04-2.55925460E-04
 3  4 9.96863526E-05-1.88236007E-05-1.83233896E-04-8.58739999E-05-5.09543436E-02
 3  5-1.48774835E-03-2.11044800E-04-6.28063541E-05-2.52713974E-04 2.98991060E-03
 3  6 1.52018898E-03 8.84266942E-05 1.14803042E-03 8.10126758E-03-1.08640461E-02
 3  7 8.54618236E-04-3.58074624E-03-1.56239107E-04 2.55925460E-04-9.96863526E-05
 3  8 1.88236007E-05-1.83233896E-04-8.58739999E-05-7.02576203E-01-1.79244738E-02
 3  9-1.53185708E-04-6.66560802E-05 1.83315355E-04 1.19361671E-02 2.96515986E-04
 3 10 2.71407512E-04-8.13827834E-04-1.92337129E-02-3.08502394E-03-1.12745011E-03
 3 11 4.04606738E-03-1.59175607E-04 3.37153487E-04-1.77977879E-04 2.55296659E-05
 3 12 2.53308710E-04 2.16643205E-04 7.02576203E-01 1.79244738E-02-1.53185708E-04
 3 13-6.66560802E-05-1.83315355E-04-1.19361671E-02 2.96515986E-04 2.71407512E-04
 3 14 8.13827834E-04 1.92337129E-02-3.08502394E-03-1.12745011E-03-4.04606738E-03
 3 15 1.59175607E-04-3.37153487E-04 1.77977879E-04-2.55296659E-05 2.53308710E-04
 3 16 2.16643205E-04-2.95568889E-07 4.94420982E-04 2.95568889E-07-4.94420982E-04
 3 17 9.65213765E-05-1.84124410E-03-9.65213765E-05 1.84124410E-03 7.31823212E-05
 3 18-1.36806413E-03-7.31823212E-05 1.36806413E-03                              
 4  1 4.73001589E-02 1.65281123E-03-1.77785213E-04-7.34483318E-05 3.31391033E-04
 4  2-3.56345262E-03 9.54807169E-04 4.61722297E-04-1.46891810E-03 6.17546755E-03
 4  3-1.70830315E-03 6.64653648E-04 6.13922539E-04 3.49183718E-05-1.31753364E-04
 4  4 9.68349923E-05 2.89276947E-05-1.97941048E-04-1.21841636E-04 4.73001589E-02
 4  5 1.65281123E-03 1.77785213E-04 7.34483318E-05 3.31391033E-04-3.56345262E-03
 4  6-9.54807169E-04-4.61722297E-04-1.46891810E-03 6.17546755E-03 1.70830315E-03
 4  7-6.64653648E-04 6.13922539E-04 3.49183718E-05-1.31753364E-04 9.68349923E-05
 4  8 2.89276947E-05 1.97941048E-04 1.21841636E-04-7.02819305E-01-1.76969250E-02
 4  9-1.50746683E-04-3.94512477E-05 1.91408630E-04 1.13719937E-02 9.24906257E-04
 4 10 6.04960474E-05-7.52786377E-04-6.69513045E-03-9.86680407E-04-7.38343201E-04
 4 11 1.97934078E-03-1.29702105E-04 3.30928982E-04-2.01226877E-04 3.15051068E-05
 4 12 2.49774997E-04 2.26809264E-04-7.02819305E-01-1.76969250E-02 1.50746683E-04
 4 13 3.94512477E-05 1.91408630E-04 1.13719937E-02-9.24906257E-04-6.04960474E-05
 4 14-7.52786377E-04-6.69513045E-03 9.86680407E-04 7.38343201E-04 1.97934078E-03
 4 15-1.29702105E-04 3.30928982E-04-2.01226877E-04 3.15051068E-05-2.49774997E-04
 4 16-2.26809264E-04 1.99420035E-05-2.45123340E-04 1.99420035E-05-2.45123340E-04
 4 17 1.65992021E-04-1.52263409E-03 1.65992021E-04-1.52263409E-03 1.37741051E-04
 4 18-1.67312665E-03 1.37741051E-04-1.67312665E-03                              
 5  1 1.32038614E-01-2.52936922E-01-1.87687281E-02 1.84649139E-02-4.66532261E-02
 5  2-1.78501252E-01-6.19851801E-03-4.62963149E-04 1.54480511E-03 7.48013661E-02
 5  3-2.17029308E-03-1.28421550E-02 1.92098485E-02-9.69875684E-03 1.20101667E-02
 5  4-2.31140991E-03 3.05803146E-03 3.77121793E-03 5.80628633E-03 1.32038614E-01
 5  5-2.52936922E-01 1.87687281E-02-1.84649139E-02-4.66532261E-02-1.78501252E-01
 5  6 6.19851801E-03 4.62963149E-04 1.54480511E-03 7.48013661E-02 2.17029308E-03
 5  7 1.28421550E-02 1.92098485E-02-9.69875684E-03 1.20101667E-02-2.31140991E-03
 5  8 3.05803146E-03-3.77121793E-03-5.80628633E-03 9.33222170E-02-1.76874884E-01
 5  9-5.48753513E-02-1.10194325E-02 5.56450228E-02-1.33153239E-01-7.04285250E-03
 5 10-9.02910597E-04 4.01448124E-03-7.47497284E-02-1.52083769E-02 1.51517595E-03
 5 11 1.16021995E-02-3.89230752E-03 7.88759487E-03-3.99528735E-03 4.32027550E-04
 5 12 6.49978200E-03 4.79226583E-03 9.33222170E-02-1.76874884E-01 5.48753513E-02
 5 13 1.10194325E-02 5.56450228E-02-1.33153239E-01 7.04285250E-03 9.02910597E-04
 5 14 4.01448124E-03-7.47497284E-02 1.52083769E-02-1.51517595E-03 1.16021995E-02
 5 15-3.89230752E-03 7.88759487E-03-3.99528735E-03 4.32027550E-04-6.49978200E-03
 5 16-4.79226583E-03-6.30700647E-02-5.84271455E-03-6.30700647E-02-5.84271455E-03
 5 17-4.16430468E-02-3.40243672E-03-4.16430468E-02-3.40243672E-03-4.62896143E-02
 5 18-4.55303292E-03-4.62896143E-02-4.55303292E-03                              
 6  1-9.05479787E-02 1.74782729E-01-1.13868813E-01-8.36196886E-03 6.51021618E-02
 6  2 1.28453169E-01-2.27205856E-02 3.66127498E-03-1.09398730E-02-8.06494369E-02
 6  3-4.48024640E-02 6.76202067E-03 2.36405439E-03-4.56948273E-03-4.92704585E-03
 6  4 9.49652858E-03 1.70536991E-03-8.01659688E-03-5.21755175E-03 9.05479787E-02
 6  5-1.74782729E-01-1.13868813E-01-8.36196886E-03-6.51021618E-02-1.28453169E-01
 6  6-2.27205856E-02 3.66127498E-03 1.09398730E-02 8.06494369E-02-4.48024640E-02
 6  7 6.76202067E-03-2.36405439E-03 4.56948273E-03 4.92704585E-03-9.49652858E-03
 6  8-1.70536991E-03-8.01659688E-03-5.21755175E-03-1.27387477E-01 2.42390602E-01
 6  9 3.46455450E-02 1.39353666E-02-5.99273646E-02 2.12380556E-01 6.04549616E-03
 6 10 2.16030139E-04-2.53685121E-03-3.57865615E-02-3.52911673E-03-3.55286068E-03
 6 11 1.06521145E-02 4.79230772E-03-1.03616422E-02 5.56933445E-03-2.24200057E-03
 6 12-5.14255844E-03-7.32729513E-03 1.27387477E-01-2.42390602E-01 3.46455450E-02
 6 13 1.39353666E-02 5.99273646E-02-2.12380556E-01 6.04549616E-03 2.16030139E-04
 6 14 2.53685121E-03 3.57865615E-02-3.52911673E-03-3.55286068E-03-1.06521145E-02
 6 15-4.79230772E-03 1.03616422E-02-5.56933445E-03 2.24200057E-03-5.14255844E-03
 6 16-7.32729513E-03 5.45002527E-02 3.33988664E-03-5.45002527E-02-3.33988664E-03
 6 17 7.64384359E-02 1.58714012E-02-7.64384359E-02-1.58714012E-02 6.76440441E-02
 6 18 7.61622976E-03-6.76440441E-02-7.61622976E-03                              
 7  1 7.51096297E-02-1.49469636E-01-1.41527260E-01-7.98945589E-03 1.24257501E-01
 7  2-1.44802150E-01-3.51793860E-02-6.94791066E-03 4.32123840E-02 1.49383379E-01
 7  3-2.61410270E-02-1.51613474E-02 3.21510576E-02-9.09224028E-03 6.84417721E-03
 7  4 2.24806307E-03 7.45513226E-03-6.80251953E-03 4.23535639E-03 7.51096297E-02
 7  5-1.49469636E-01 1.41527260E-01 7.98945589E-03 1.24257501E-01-1.44802150E-01
 7  6 3.51793860E-02 6.94791066E-03 4.32123840E-02 1.49383379E-01 2.61410270E-02
 7  7 1.51613474E-02 3.21510576E-02-9.09224028E-03 6.84417721E-03 2.24806307E-03
 7  8 7.45513226E-03 6.80251953E-03-4.23535639E-03-1.03841806E-01 2.03796132E-01
 7  9-4.65668586E-02-7.28248262E-03 5.32843207E-02 1.90522883E-01-2.21074442E-02
 7 10-1.58752723E-03 2.31434084E-02-1.46766299E-01-2.32148485E-02-2.55972196E-03
 7 11 2.94007507E-02 6.29103023E-03-8.39976747E-03 2.10873724E-03-5.63800468E-03
 7 12 5.45191384E-03-7.77055595E-03-1.03841806E-01 2.03796132E-01 4.65668586E-02
 7 13 7.28248262E-03 5.32843207E-02 1.90522883E-01 2.21074442E-02 1.58752723E-03
 7 14 2.31434084E-02-1.46766299E-01 2.32148485E-02 2.55972196E-03 2.94007507E-02
 7 15 6.29103023E-03-8.39976747E-03 2.10873724E-03-5.63800468E-03-5.45191384E-03
 7 16 7.77055595E-03-8.66861032E-02-3.16902869E-02-8.66861032E-02-3.16902869E-02
 7 17 1.02399243E-01 3.91974493E-02 1.02399243E-01 3.91974493E-02 1.01249362E-01
 7 18 4.18562958E-02 1.01249362E-01 4.18562958E-02                              
 8  1 8.52583223E-02-1.69555768E-01 9.31785647E-02-5.70806728E-02 7.52012311E-02
 8  2-1.71056469E-01 2.58639903E-02-2.71443417E-02 6.12217600E-02 1.26330482E-01
 8  3-4.41068604E-02-4.73341860E-03 5.37511794E-02 5.36158333E-03 4.76453981E-03
 8  4-1.01261231E-02 1.63012997E-03-6.97661774E-03 7.68797716E-03-8.52583223E-02
 8  5 1.69555768E-01 9.31785647E-02-5.70806728E-02-7.52012311E-02 1.71056469E-01
 8  6 2.58639903E-02-2.71443417E-02-6.12217600E-02-1.26330482E-01-4.41068604E-02
 8  7-4.73341860E-03-5.37511794E-02-5.36158333E-03-4.76453981E-03 1.01261231E-02
 8  8-1.63012997E-03-6.97661774E-03 7.68797716E-03-6.16270803E-02 1.22284979E-01
 8  9-7.83508620E-02-5.65508654E-02 1.70390002E-01 1.30496228E-01-3.87809616E-02
 8 10-2.08426584E-02 6.11758869E-02-1.81640745E-01-3.15011214E-02-1.03086681E-02
 8 11 3.25518305E-02 6.31526973E-03-5.71739663E-03-5.97873107E-04-8.36847086E-03
 8 12 1.09307055E-02-5.44582386E-03 6.16270803E-02-1.22284979E-01-7.83508620E-02
 8 13-5.65508654E-02-1.70390002E-01-1.30496228E-01-3.87809616E-02-2.08426584E-02
 8 14-6.11758869E-02 1.81640745E-01-3.15011214E-02-1.03086681E-02-3.25518305E-02
 8 15-6.31526973E-03 5.71739663E-03 5.97873107E-04 8.36847086E-03 1.09307055E-02
 8 16-5.44582386E-03-1.39628943E-01-5.96543498E-02 1.39628943E-01 5.96543498E-02
 8 17 8.57878195E-02 4.20008229E-02-8.57878195E-02-4.20008229E-02 1.30216129E-01
 8 18 7.08842823E-02-1.30216129E-01-7.08842823E-02                              
 9  1 4.62624285E-03-1.22477071E-02-1.70286198E-01 6.92356708E-02-1.79155551E-01
 9  2 6.51025571E-04-5.79387747E-02 2.58729933E-02-7.10471891E-02-2.50252943E-02
 9  3 5.49224121E-03 2.75738434E-03-7.88299983E-03-5.84864336E-03-1.61511099E-04
 9  4 6.01015446E-03-1.34054188E-03 1.97908372E-03-3.70200934E-03 4.62624285E-03
 9  5-1.22477071E-02 1.70286198E-01-6.92356708E-02-1.79155551E-01 6.51025571E-04
 9  6 5.79387747E-02-2.58729933E-02-7.10471891E-02-2.50252943E-02-5.49224121E-03
 9  7-2.75738434E-03-7.88299983E-03-5.84864336E-03-1.61511099E-04 6.01015446E-03
 9  8-1.34054188E-03-1.97908372E-03 3.70200934E-03-8.86737073E-03 1.72127041E-02
 9  9-2.01868748E-01 5.59205752E-02-7.78678300E-02 3.01441759E-02-7.89408852E-02
 9 10 2.19163775E-02-3.67443458E-02 2.81841743E-02 2.91173253E-04 1.20110429E-03
 9 11-6.37879851E-03 6.83124983E-03-2.10814052E-03-4.72310931E-03-3.54037445E-03
 9 12 9.11337915E-04 2.30373085E-03-8.86737073E-03 1.72127041E-02 2.01868748E-01
 9 13-5.59205752E-02-7.78678300E-02 3.01441759E-02 7.89408852E-02-2.19163775E-02
 9 14-3.67443458E-02 2.81841743E-02-2.91173253E-04-1.20110429E-03-6.37879851E-03
 9 15 6.83124983E-03-2.10814052E-03-4.72310931E-03-3.54037445E-03-9.11337915E-04
 9 16-2.30373085E-03 1.31413673E-01 8.07251842E-02 1.31413673E-01 8.07251842E-02
 9 17 1.27897364E-01 7.63772263E-02 1.27897364E-01 7.63772263E-02-7.78803898E-02
 9 18-4.51636324E-02-7.78803898E-02-4.51636324E-02                              
10  1 1.01841287E-02-1.92485759E-02 2.11441237E-01 1.12055500E-02-2.01188071E-01
10  2 1.13445681E-03 6.85789379E-02 7.80575215E-03-8.19030638E-02 1.09939879E-03
10  3-9.45541902E-04 6.66688203E-03-8.84715322E-03 2.89906069E-03-4.88106165E-04
10  4-2.41095452E-03-5.48375640E-03 6.77317115E-03-1.58173830E-03 1.01841287E-02
10  5-1.92485759E-02-2.11441237E-01-1.12055500E-02-2.01188071E-01 1.13445681E-03
10  6-6.85789379E-02-7.80575215E-03-8.19030638E-02 1.09939879E-03 9.45541902E-04
10  7-6.66688203E-03-8.84715322E-03 2.89906069E-03-4.88106165E-04-2.41095452E-03
10  8-5.48375640E-03-6.77317115E-03 1.58173830E-03-2.95971298E-04-1.50579418E-03
10  9-1.13181408E-01-8.91449811E-02 2.64391279E-01 4.67635987E-02-2.49902200E-02
10 10-3.87421603E-02 1.01910266E-01 4.05730073E-03-1.51288569E-03-5.48467474E-03
10 11 1.08412823E-02 1.26843414E-04-1.92032970E-03 1.79348629E-03-7.48620494E-03
10 12 1.51537778E-02-4.88922025E-03-2.95971298E-04-1.50579418E-03 1.13181408E-01
10 13 8.91449811E-02 2.64391279E-01 4.67635987E-02 2.49902200E-02 3.87421603E-02
10 14 1.01910266E-01 4.05730073E-03 1.51288569E-03 5.48467474E-03 1.08412823E-02
10 15 1.26843414E-04-1.92032970E-03 1.79348629E-03-7.48620494E-03-1.51537778E-02
10 16 4.88922025E-03 5.04340290E-02 3.16321900E-02 5.04340290E-02 3.16321900E-02
10 17 4.73475017E-02 3.95930253E-02 4.73475017E-02 3.95930253E-02 1.40843021E-01
10 18 9.48669240E-02 1.40843021E-01 9.48669240E-02                              
11  1-1.88718017E-02 4.02645402E-02-2.61603379E-02-1.08074780E-01 1.68621688E-01
11  2 9.13146507E-03-2.28695873E-02-4.04517168E-02 5.63564994E-02 1.43651378E-01
11  3 3.51155246E-02-9.25829828E-03 1.14008607E-02-5.92506288E-03 2.99224857E-03
11  4 2.93281431E-03 2.56830611E-03-1.20667758E-02-1.04647563E-04 1.88718017E-02
11  5-4.02645402E-02-2.61603379E-02-1.08074780E-01-1.68621688E-01-9.13146507E-03
11  6-2.28695873E-02-4.04517168E-02-5.63564994E-02-1.43651378E-01 3.51155246E-02
11  7-9.25829828E-03-1.14008607E-02 5.92506288E-03-2.99224857E-03-2.93281431E-03
11  8-2.56830611E-03-1.20667758E-02-1.04647563E-04-5.31722787E-03 1.11337514E-02
11  9 2.90636457E-01-7.44237234E-02-2.55917712E-02-1.10882189E-02 1.32939254E-01
11 10-4.33557018E-02 6.40453739E-03-1.41448117E-02 5.65351812E-03-3.41383288E-03
11 11-2.29109750E-04-1.50672119E-02 2.15235660E-03 1.29148553E-02 4.50133026E-03
11 12-6.36562917E-03-1.39852004E-03 5.31722787E-03-1.11337514E-02 2.90636457E-01
11 13-7.44237234E-02 2.55917712E-02 1.10882189E-02 1.32939254E-01-4.33557018E-02
11 14-6.40453739E-03 1.41448117E-02 5.65351812E-03-3.41383288E-03 2.29109750E-04
11 15 1.50672119E-02-2.15235660E-03-1.29148553E-02-4.50133026E-03-6.36562917E-03
11 16-1.39852004E-03-8.66428899E-02-7.01383254E-02 8.66428899E-02 7.01383254E-02
11 17-1.79634660E-01-1.18781755E-01 1.79634660E-01 1.18781755E-01 6.24757906E-02
11 18 3.37309648E-02-6.24757906E-02-3.37309648E-02                              
12  1 1.38775239E-02-2.77085467E-02-3.67191334E-02-1.07400326E-01 1.95718250E-01
12  2-4.68850771E-02 2.14364146E-02-6.50321471E-02 1.17719709E-01 1.48647445E-01
12  3 4.50454285E-02-1.67674308E-02 2.55830818E-02 1.10104693E-02 1.60588487E-03
12  4-1.26163542E-02 1.45956529E-03-1.84084204E-02 9.69318621E-03-1.38775239E-02
12  5 2.77085467E-02-3.67191334E-02-1.07400326E-01-1.95718250E-01 4.68850771E-02
12  6 2.14364146E-02-6.50321471E-02-1.17719709E-01-1.48647445E-01 4.50454285E-02
12  7-1.67674308E-02-2.55830818E-02-1.10104693E-02-1.60588487E-03 1.26163542E-02
12  8-1.45956529E-03-1.84084204E-02 9.69318621E-03-1.19093461E-02 2.47912913E-02
12  9-6.12137220E-02 8.78192825E-02-2.43270169E-01 1.64692901E-04-6.37719958E-02
12 10 4.93364002E-02-1.25848650E-01-2.33930451E-02-1.48779145E-02 6.38050275E-03
12 11-1.50555304E-02 1.49931196E-02-2.01811502E-03-1.29750046E-02 2.84265165E-04
12 12-1.16114605E-02 1.08032810E-02 1.19093461E-02-2.47912913E-02-6.12137220E-02
12 13 8.78192825E-02 2.43270169E-01-1.64692901E-04-6.37719958E-02 4.93364002E-02
12 14 1.25848650E-01 2.33930451E-02-1.48779145E-02 6.38050275E-03 1.50555304E-02
12 15-1.49931196E-02 2.01811502E-03 1.29750046E-02-2.84265165E-04-1.16114605E-02
12 16 1.08032810E-02-1.52897418E-01-1.08396001E-01 1.52897418E-01 1.08396001E-01
12 17 7.90764256E-02 5.03400278E-02-7.90764256E-02-5.03400278E-02-1.65958225E-01
12 18-1.17921378E-01 1.65958225E-01 1.17921378E-01                              
13  1-1.42820190E-02 3.43051256E-02 2.72449729E-01-6.57576614E-02 9.02263322E-02
13  2 2.31698914E-02 1.42472011E-01-4.54050666E-02 7.15761692E-02 4.05277674E-02
13  3 1.87665444E-02-8.83911610E-03 2.34268792E-02 2.17206277E-02-1.75500123E-03
13  4-1.99656265E-02-2.74534518E-03-5.15473200E-03 8.53749575E-03-1.42820190E-02
13  5 3.43051256E-02-2.72449729E-01 6.57576614E-02 9.02263322E-02 2.31698914E-02
13  6-1.42472011E-01 4.54050666E-02 7.15761692E-02 4.05277674E-02-1.87665444E-02
13  7 8.83911610E-03 2.34268792E-02 2.17206277E-02-1.75500123E-03-1.99656265E-02
13  8-2.74534518E-03 5.15473200E-03-8.53749575E-03 4.11373710E-03-7.13221184E-03
13  9-1.91403144E-01 6.93153350E-02-6.16647369E-02-7.40777470E-03-1.27737983E-01
13 10 4.89161045E-02-5.35942653E-02-4.57966808E-02-2.97057340E-02 6.29702578E-03
13 11-1.75840816E-03 2.29800175E-02-2.60785296E-03-2.03721646E-02-3.50074977E-03
13 12-4.39689900E-03 8.62904145E-03 4.11373710E-03-7.13221184E-03 1.91403144E-01
13 13-6.93153350E-02-6.16647369E-02-7.40777470E-03 1.27737983E-01-4.89161045E-02
13 14-5.35942653E-02-4.57966808E-02 2.97057340E-02-6.29702578E-03-1.75840816E-03
13 15 2.29800175E-02-2.60785296E-03-2.03721646E-02-3.50074977E-03 4.39689900E-03
13 16-8.62904145E-03-1.32762776E-01-1.01711771E-01-1.32762776E-01-1.01711771E-01
13 17 1.48616021E-01 1.12875942E-01 1.48616021E-01 1.12875942E-01-1.16082858E-01
13 18-8.81471709E-02-1.16082858E-01-8.81471709E-02                              
14  1 3.81101308E-04 5.44092328E-04-4.47768578E-02-2.44373024E-01-1.48139726E-01
14  2-1.78286643E-02-4.40406156E-02-1.61298329E-01-1.13405340E-01-1.07970496E-01
14  3 4.72502790E-02-1.98964507E-02-8.98933089E-02-7.27978192E-04 6.84346464E-03
14  4-6.11548645E-03-8.50580540E-04 1.05061617E-02-1.28855091E-02-3.81101308E-04
14  5-5.44092328E-04-4.47768578E-02-2.44373024E-01 1.48139726E-01 1.78286643E-02
14  6-4.40406156E-02-1.61298329E-01 1.13405340E-01 1.07970496E-01 4.72502790E-02
14  7-1.98964507E-02 8.98933089E-02 7.27978192E-04-6.84346464E-03 6.11548645E-03
14  8 8.50580540E-04 1.05061617E-02-1.28855091E-02 1.18027868E-02-2.59565086E-02
14  9-8.76503722E-02-2.13928505E-01-5.55606907E-02-1.72964269E-02-3.35787317E-02
14 10-1.49411559E-01-4.90320983E-02 1.66312816E-01 1.24856051E-02-6.26496128E-03
14 11-3.18487043E-02-1.80422999E-03-5.23516052E-03 7.03939051E-03-1.20429527E-02
14 12-1.88459031E-04 1.14400685E-02-1.18027868E-02 2.59565086E-02-8.76503722E-02
14 13-2.13928505E-01 5.55606907E-02 1.72964269E-02-3.35787317E-02-1.49411559E-01
14 14 4.90320983E-02-1.66312816E-01 1.24856051E-02-6.26496128E-03 3.18487043E-02
14 15 1.80422999E-03 5.23516052E-03-7.03939051E-03 1.20429527E-02-1.88459031E-04
14 16 1.14400685E-02 4.73850874E-02 3.99104198E-02-4.73850874E-02-3.99104198E-02
14 17 1.89392455E-02 2.75927155E-02-1.89392455E-02-2.75927155E-02-1.83511067E-03
14 18 1.98099208E-03 1.83511067E-03-1.98099208E-03                              
15  1 6.01346849E-04-5.07602491E-04 3.71847977E-02 2.34256047E-01 5.11813735E-02
15  2-1.84802504E-02 3.58282093E-02 1.96392288E-01 3.48759232E-02-1.89557227E-01
15  3 4.17415305E-02 8.50783599E-02-3.77679609E-02-6.97448464E-03-3.54888371E-03
15  4 1.05233683E-02-2.08086748E-02 3.43831229E-03 1.08498183E-02 6.01346849E-04
15  5-5.07602491E-04-3.71847977E-02-2.34256047E-01 5.11813735E-02-1.84802504E-02
15  6-3.58282093E-02-1.96392288E-01 3.48759232E-02-1.89557227E-01-4.17415305E-02
15  7-8.50783599E-02-3.77679609E-02-6.97448464E-03-3.54888371E-03 1.05233683E-02
15  8-2.08086748E-02-3.43831229E-03-1.08498183E-02 7.52980319E-03-2.02912576E-02
15  9 3.03761844E-02 2.74469397E-01 1.15081585E-01-2.81318112E-03 5.47186690E-02
15 10 2.14128787E-01 7.49517477E-02 1.89041582E-01 3.62123195E-02 4.52222497E-02
15 11-1.73556511E-02 3.84909037E-03 4.54371423E-03-8.39280460E-03 9.29973365E-03
15 12 1.85850254E-03-1.15176303E-02 7.52980319E-03-2.02912576E-02-3.03761844E-02
15 13-2.74469397E-01 1.15081585E-01-2.81318112E-03-5.47186690E-02-2.14128787E-01
15 14 7.49517477E-02 1.89041582E-01-3.62123195E-02-4.52222497E-02-1.73556511E-02
15 15 3.84909037E-03 4.54371423E-03-8.39280460E-03 9.29973365E-03-1.85850254E-03
15 16 1.15176303E-02 2.90421512E-02 3.87710198E-02 2.90421512E-02 3.87710198E-02
15 17 7.94430651E-03 2.02917399E-02 7.94430651E-03 2.02917399E-02-2.70542921E-03
15 18 8.41558318E-03-2.70542921E-03 8.41558318E-03                              
16  1-1.25743400E-02 3.59736466E-02-2.00768759E-02 1.15494690E-02-6.38090731E-02
16  2 6.01248228E-02-2.05804297E-02-2.56165405E-02-1.85004426E-03-4.95479312E-01
16  3 5.76399547E-01-8.39678232E-01 5.27607679E-01 5.22913863E-04-4.92932321E-03
16  4 4.40640935E-03-1.85207429E-03-4.97458395E-03-2.03125208E-03-1.25743400E-02
16  5 3.59736466E-02 2.00768759E-02-1.15494690E-02-6.38090731E-02 6.01248228E-02
16  6 2.05804297E-02 2.56165405E-02-1.85004426E-03-4.95479312E-01-5.76399547E-01
16  7 8.39678232E-01 5.27607679E-01 5.22913863E-04-4.92932321E-03 4.40640935E-03
16  8-1.85207429E-03 4.97458395E-03 2.03125208E-03-2.59840456E-02 5.60096319E-02
16  9-1.77076080E-02 4.07575638E-03 3.93143491E-02 9.40343885E-02-1.47522211E-01
16 10 3.01672829E-02 4.42305364E-02-5.18839430E-01-2.36323320E-02 4.78972072E-01
16 11-5.13019029E-01-5.07922076E-04-2.40446888E-03 2.91239096E-03-3.04836306E-03
16 12 4.23103488E-03-2.96562513E-03-2.59840456E-02 5.60096319E-02 1.77076080E-02
16 13-4.07575638E-03 3.93143491E-02 9.40343885E-02 1.47522211E-01-3.01672829E-02
16 14 4.42305364E-02-5.18839430E-01 2.36323320E-02-4.78972072E-01-5.13019029E-01
16 15-5.07922076E-04-2.40446888E-03 2.91239096E-03-3.04836306E-03-4.23103488E-03
16 16 2.96562513E-03 1.84476194E-03 2.38646102E-01 1.84476194E-03 2.38646102E-01
16 17-7.23218690E-03 3.50198142E-02-7.23218690E-03 3.50198142E-02 1.45451514E-02
16 18 1.73434163E-01 1.45451514E-02 1.73434163E-01                              
17  1-2.28146585E-03 1.63095460E-02 1.36536974E-02 1.48461371E-01 3.45821106E-02
17  2-4.24706825E-02-1.40686689E-02 1.84407263E-01 5.72821178E-02 2.34246722E+00
17  3 6.58169336E-01 4.13601639E-01 9.97326681E-01 5.77881826E-03-1.05150201E-03
17  4-4.72731625E-03 1.51220201E-02-5.22759875E-03-9.23686281E-03 2.28146585E-03
17  5-1.63095460E-02 1.36536974E-02 1.48461371E-01-3.45821106E-02 4.24706825E-02
17  6-1.40686689E-02 1.84407263E-01-5.72821178E-02-2.34246722E+00 6.58169336E-01
17  7 4.13601639E-01-9.97326681E-01-5.77881826E-03 1.05150201E-03 4.72731625E-03
17  8-1.51220201E-02-5.22759875E-03-9.23686281E-03-1.19900910E-02 3.65967330E-02
17  9-5.69843846E-02-1.28452497E-01-7.77163209E-02-3.73837376E-03-4.61457838E-02
17 10-1.48938927E-01-6.26832384E-02-5.04170600E-01 2.11714756E-01-8.71069363E-01
17 11-3.53159957E-01 3.69123258E-03 1.99766591E-03-5.68889849E-03 6.19495967E-03
17 12 2.61081238E-03-8.14732734E-03 1.19900910E-02-3.65967330E-02-5.69843846E-02
17 13-1.28452497E-01 7.77163209E-02 3.73837376E-03-4.61457838E-02-1.48938927E-01
17 14 6.26832384E-02 5.04170600E-01 2.11714756E-01-8.71069363E-01 3.53159957E-01
17 15-3.69123258E-03-1.99766591E-03 5.68889849E-03-6.19495967E-03 2.61081238E-03
17 16-8.14732734E-03-1.64779084E-02 1.15827792E-02 1.64779084E-02-1.15827792E-02
17 17 2.10819062E-03 1.31030624E-01-2.10819062E-03-1.31030624E-01 1.45754951E-03
17 18-2.01380208E-02-1.45754951E-03 2.01380208E-02                              
18  1-1.54489412E-02 6.34038249E-02-3.67091286E-02-1.13060610E-03-4.13339796E-02
18  2-9.38522141E-02-7.79348653E-03-7.01127719E-03-8.00974653E-02 1.28948201E+01
18  3-2.43587565E+00-1.35869931E+00 2.85852554E+00 2.63448720E-03-3.44994685E-05
18  4-2.59998774E-03-1.08153714E-03 2.10572358E-03-7.33780723E-04-1.54489412E-02
18  5 6.34038249E-02 3.67091286E-02 1.13060610E-03-4.13339796E-02-9.38522141E-02
18  6 7.79348653E-03 7.01127719E-03-8.00974653E-02 1.28948201E+01 2.43587565E+00
18  7 1.35869931E+00 2.85852554E+00 2.63448720E-03-3.44994685E-05-2.59998774E-03
18  8-1.08153714E-03-2.10572358E-03 7.33780723E-04 1.49337981E-02-3.22637684E-02
18  9 1.56623465E-03 5.98732013E-03-4.03433608E-02-1.14357242E-02-1.47293156E-02
18 10 1.75097932E-02-1.12034702E-01-1.27855106E+01-2.26681154E+00-3.53648562E-01
18 11 3.18760348E+00-3.95377886E-03-1.10101333E-03 5.05479219E-03 2.08215839E-03
18 12-6.86392028E-03 1.25260131E-03 1.49337981E-02-3.22637684E-02-1.56623465E-03
18 13-5.98732013E-03-4.03433608E-02-1.14357242E-02 1.47293156E-02-1.75097932E-02
18 14-1.12034702E-01-1.27855106E+01 2.26681154E+00 3.53648562E-01 3.18760348E+00
18 15-3.95377886E-03-1.10101333E-03 5.05479219E-03 2.08215839E-03 6.86392028E-03
18 16-1.25260131E-03-7.46455774E-04 6.14734857E-02-7.46455774E-04 6.14734857E-02
18 17-1.48227064E-02-1.56275525E-02-1.48227064E-02-1.56275525E-02 3.52808445E-03
18 18-2.24323518E-02 3.52808445E-03-2.24323518E-02                              
19  1 2.28321483E-03-1.65480578E-03-9.76270961E-03-6.71020072E-02-5.93612976E-02
19  2 1.03850736E-02-1.33014598E-01-8.35638723E-02 3.38818886E-02-3.61127150E+00
19  3 4.12981984E+00-2.99234372E-01-2.77361108E+00-3.05644175E-03-1.25850076E-03
19  4 4.31494251E-03-5.12994834E-03 1.08556460E-03 1.00170816E-03-2.28321483E-03
19  5 1.65480578E-03-9.76270961E-03-6.71020072E-02 5.93612976E-02-1.03850736E-02
19  6-1.33014598E-01-8.35638723E-02-3.38818886E-02 3.61127150E+00 4.12981984E+00
19  7-2.99234372E-01 2.77361108E+00 3.05644175E-03 1.25850076E-03-4.31494251E-03
19  8 5.12994834E-03 1.08556460E-03 1.00170816E-03-1.57148767E-02 6.14619108E-02
19  9-4.47240048E-02 4.89986122E-02 5.51858747E-02-1.46289818E-01-7.19505488E-02
19 10 9.83700562E-03 1.24994930E-01 1.06165700E+01 2.30019706E+00 1.09218880E+00
19 11-2.29528178E+00 8.50622145E-04-1.67454313E-03 8.23920986E-04-7.77047735E-03
19 12 5.07348077E-03 3.92191399E-03 1.57148767E-02-6.14619108E-02-4.47240048E-02
19 13 4.89986122E-02-5.51858747E-02 1.46289818E-01-7.19505488E-02 9.83700562E-03
19 14-1.24994930E-01-1.06165700E+01 2.30019706E+00 1.09218880E+00 2.29528178E+00
19 15-8.50622145E-04 1.67454313E-03-8.23920986E-04 7.77047735E-03 5.07348077E-03
19 16 3.92191399E-03 1.64955542E-02 8.47035308E-02-1.64955542E-02-8.47035308E-02
19 17 9.27651901E-03 1.56945925E-01-9.27651901E-03-1.56945925E-01 3.99019308E-03
19 18-6.63884519E-03-3.99019308E-03 6.63884519E-03                              
20  1-1.75249098E-02 6.21887863E-02-2.25154921E-02-1.44933479E-02-6.14937605E-02
20  2-4.68969171E-02-2.64796882E-02-1.08173877E-02-6.38141286E-03 2.13893374E+01
20  3-3.13511121E-01-1.32018008E+00 5.41363164E+00-5.05570811E-03 3.80195868E-04
20  4 4.67551225E-03-3.66492612E-03 5.00363802E-03 5.24016578E-03 1.75249098E-02
20  5-6.21887863E-02-2.25154921E-02-1.44933479E-02 6.14937605E-02 4.68969171E-02
20  6-2.64796882E-02-1.08173877E-02 6.38141286E-03-2.13893374E+01-3.13511121E-01
20  7-1.32018008E+00-5.41363164E+00 5.05570811E-03-3.80195868E-04-4.67551225E-03
20  8 3.66492612E-03 5.00363802E-03 5.24016578E-03 7.12318622E-03-1.01964959E-02
20  9-1.93872031E-02 7.08416961E-02 1.79265291E-02-7.68219648E-02-8.81750341E-03
20 10 9.87642089E-02 1.49609287E-02-1.51643009E+01-2.66331899E+00-7.43555618E-01
20 11 2.91322352E+00-1.92548077E-03-1.03122605E-03 2.95670682E-03 1.27730537E-03
20 12-6.41761224E-03 2.74491069E-03-7.12318622E-03 1.01964959E-02-1.93872031E-02